LAMMPS (23 Jun 2022 - Update 2)
WARNING: Using I/O redirection is unreliable with parallel runs. Better use -in switch to read input file. (../lammps.cpp:530)
####################################################
# Preprocessing Li2SO4 in water
# 1m 298 K and 1 atm
#################### SETTING UP ####################
units real
dimension 3
newton on
boundary p p p
atom_style full

#################### VARIABLES ####################
variable Temp equal 298.15    # Temperature in K
variable Pres equal 1.0       # Pressure in atm.

variable RandomSeed equal 12 # The random seed for velocity
variable tstep equal 1.0      # 1fs
variable Ninptpre equal 10000 # Pre-initialize the NPT ensemble (very small timesteps)
variable Ninpt equal 10000000  # Initialize the NPT ensemble
variable Npnpt equal 10000000  # Production in the NPT ensemble (volume)
variable Ninvtpre equal 10000 # Pre-initialize the NVT ensemble (very small timesteps)
variable Ninvt equal 500000   # Initialize the NVT ensemble
variable Nrun equal 50000     # production in the NVT ensemble (Transport properties) 1ns
variable Nf equal 1000         # Nfreq (fix ave/time and thermo)
variable Ne equal  1         # Nevery (fix ave/time)
variable Nr equal ${Nf}/${Ne} # Nrepeat (fix ave/time)
variable Nr equal 1000/${Ne} 
variable Nr equal 1000/1 
variable NBR equal ${Npnpt}/100 # Block averaging for density (NPT)
variable NBR equal 10000000/100 
variable Nd equal ${Nrun}/10 # Frequency of outputting positions of atoms in the NVT ensemble
variable Nd equal 50000/10 

variable nb equal 10          # Number of blocks (fix ordern)
variable nbe equal 20         # Number of block elements (fix ordern)
variable Nvisc equal 5        # Nevery for viscosity (fix ordern: sample data at (Nvisc*2))
variable Ncond equal 5        # Nevery for Tconductivity (fix ordern: sample data at (Ncond*2))
variable Ndiff equal 1000     # Nevery for diffusivity (fix ordern: sample data at (Ndiff))
variable Nwrit equal 100000   # Nwrite for transport properties (fix ordern: write every (Nwrit))

variable Nrdfe equal 1000     # Nevery for RDF (fix ave/time)
variable Nrdfw equal 1000     # Nwrite for RDF (compute rdf/ext: write every (Nrdfw*Nrdfe))
variable binnum equal 2000    # Number of bins for RDF

#################### ATOM DEFINITION and FORCEFIELD ####################
read_data ./data.lmp                     # read the positions
Reading data file ...
  orthogonal box = (0 0 0) to (32.712215 32.712215 32.712215)
  2 by 2 by 3 MPI processor grid
  reading atoms ...
  3162 atoms
  scanning bonds ...
  4 = max bonds/atom
  scanning angles ...
  6 = max angles/atom
  reading bonds ...
  2108 bonds
  reading angles ...
  1108 angles
Finding 1-2 1-3 1-4 neighbors ...
  special bond factors lj:    0        0        0       
  special bond factors coul:  0        0        0       
     4 = max # of 1-2 neighbors
     3 = max # of 1-3 neighbors
     3 = max # of 1-4 neighbors
     4 = max # of special neighbors
  special bonds CPU = 0.003 seconds
  read_data CPU = 0.031 seconds
include ./forcefield.data                # read the force field
#--------INTERMOLECULAR POTENTIAL -------------------#
# ---------------Developed for Li2SO4 in water (tip4p/2005) system-----#

mass 1 15.9994 # Ow
mass 2 1.008 # Hw
mass 3 6.891  # Li  -0.01, which went to ghost
mass 4 0.05 # m ghost of lithium
mass 5 0.05 # S  Center site without weight
mass 6 24.0027 # Os (added sulfur weight)


pair_style lj/cut/tip4p/long 1 2 1 1 0.1546 10.0
kspace_style pppm/tip4p 1.0e-5
pair_modify mix arithmetic tail yes # ATC and Lorentz-Berthelot combining rules

#-----------------Combinations----------------------------
# atomtype atomtype epsilon sigma

pair_coeff 1 1 0.185200 3.1589     # Ow-Ow
pair_coeff 1 2 0.000000 0.0000     # Ow-Hw
pair_coeff 1 3 0.167459 2.12       # Ow-Li
pair_coeff 1 4 0.000000 0.0000     # Ow-m
pair_coeff 1 5 0.215246 3.35445    # Ow-S  COMPUTE BY HAND LB mix
pair_coeff 1 6 0.150335 3.40445    # Ow-Os

pair_coeff 2 2 0.000000 0.0000     # Hw-Hw
pair_coeff 2 3 0.000000 0.0000     # Hw-Li
pair_coeff 2 4 0.000000 0.0000     # Hw-m
pair_coeff 2 5 0.000000 0.0000     # Hw-S
pair_coeff 2 6 0.000000 0.0000     # Hw-Os

pair_coeff 3 3 0.103989 1.4397     # Li-Li
pair_coeff 3 4 0.000000 0.0000     # Li-m
pair_coeff 3 5 0.161291 2.49485    # Li-S   COMPUTE BY HAND LB mix
pair_coeff 3 6 0.192067 2.844850   # Li-Os

pair_coeff 4 4 0.000000 0.0000     # m-m
pair_coeff 4 5 0.000000 0.0000     # m-S
pair_coeff 4 6 0.000000 0.0000     # m-Os

pair_coeff 5 5 0.250167 3.5500     # S-S
pair_coeff 5 6 0.223762 3.6000     # S-Os  CHECK BY HAND LB mix

pair_coeff 6 6 0.200143 3.6500     # Os-Os

bond_style  harmonic
bond_coeff 1 2000 0.9572           # Ow-Hw
bond_coeff 2 1000 0.1		   # Li-m
bond_coeff 3 1000 1.490		   # S-Os

angle_style harmonic
angle_coeff 1 200 104.52           # H-Ow-H
angle_coeff 2 200 109.47           # Os-S-Os

#dihedral_style none
#improper_style none

set type 1 charge -1.1128          # O
Setting atom values ...
  1000 settings made for charge
set type 2 charge +0.5564          # OH
Setting atom values ...
  2000 settings made for charge
set type 3 charge +0.8500          # Li
Setting atom values ...
  36 settings made for charge
set type 4 charge 0		   # m
Setting atom values ...
  36 settings made for charge
set type 5 charge +0.9000          # S
Setting atom values ...
  18 settings made for charge
set type 6 charge -0.6500          # Os
Setting atom values ...
  72 settings made for charge


#################### INITIALIZATION ####################
# groups for the central atoms of water (O)

group wat type 1		# O water
1000 atoms in group wat
group Li type 3			# Lithium atom
36 atoms in group Li
group S type 5			# S sulfite group centre
18 atoms in group S

# neigbor lists
neighbor 2.0 bin
neigh_modify every 1 delay 0 check yes

# velocity-Verlet integrator
run_style verlet

# initializing velocities
velocity all create ${Temp} ${RandomSeed}
velocity all create 298.15 ${RandomSeed}
velocity all create 298.15 12

# rate of writing thermal properties to the log file
thermo_style custom step density temp press etotal
thermo_modify flush yes
thermo ${Nf}
thermo 1000

#################### 2) Initialize the NPT ensemble ####################
######### Go to the correct temperature now ant initiate that ##########
fix integrate all rigid/npt/small molecule temp ${Temp} ${Temp} 10.0 iso ${Pres} ${Pres} 100.0
fix integrate all rigid/npt/small molecule temp 298.15 ${Temp} 10.0 iso ${Pres} ${Pres} 100.0
fix integrate all rigid/npt/small molecule temp 298.15 298.15 10.0 iso ${Pres} ${Pres} 100.0
fix integrate all rigid/npt/small molecule temp 298.15 298.15 10.0 iso 1 ${Pres} 100.0
fix integrate all rigid/npt/small molecule temp 298.15 298.15 10.0 iso 1 1 100.0
  create bodies CPU = 0.001 seconds
  1054 rigid bodies with 3162 atoms
  1.4900946 = max distance from body owner to body atom

# add dump trajectory

# Initializing the whole system with very small timesteps in the NPT ensemble
timestep 0.001
run ${Ninptpre}
run 10000
PPPM initialization ...
  extracting TIP4P info from pair style
  using 12-bit tables for long-range coulomb (../kspace.cpp:342)
  G vector (1/distance) = 0.30890196
  grid = 30 30 30
  stencil order = 5
  estimated absolute RMS force accuracy = 0.0039074082
  estimated relative force accuracy = 1.1767044e-05
  using double precision KISS FFT
  3d grid and FFT values/proc = 8228 2700
Generated 0 of 15 mixed pair_coeff terms from arithmetic mixing rule
Neighbor list info ...
  update every 1 steps, delay 0 steps, check yes
  max neighbors/atom: 2000, page size: 100000
  master list distance cutoff = 12.3092
  ghost atom cutoff = 12.3092
  binsize = 6.1546, bins = 6 6 6
  1 neighbor lists, perpetual/occasional/extra = 1 0 0
  (1) pair lj/cut/tip4p/long, perpetual
      attributes: half, newton on
      pair build: half/bin/newton
      stencil: half/bin/3d
      bin: standard
Per MPI rank memory allocation (min/avg/max) = 16.41 | 16.47 | 16.8 Mbytes
   Step        Density          Temp          Press          TotEng    
         0   0.94847729     301.59587      2467852.7      1632.3594    
      1000   0.94814608     312.56584      28907.348      1626.8402    
      2000   0.94725274     343.67185      28242.328      1610.3821    
      3000   0.94581133     393.10349      27133.048      1577.5613    
      4000   0.94384525     457.29269      25576.747      1516.8845    
      5000   0.94138739     532.3035       23578.999      1419.8885    
      6000   0.93847989     616.229        21187.431      1294.2277    
      7000   0.93517309     703.93686      18579.455      1130.1172    
      8000   0.93152196     791.04297      16047.608      925.53847    
      9000   0.92758094     874.56167      13642.072      687.18213    
     10000   0.92340294     950.4287       11145.179      414.26788    
Loop time of 84.6266 on 12 procs for 10000 steps with 3162 atoms

Performance: 0.010 ns/day, 2350.738 hours/ns, 118.166 timesteps/s
95.0% CPU use with 12 MPI tasks x no OpenMP threads

MPI task timing breakdown:
Section |  min time  |  avg time  |  max time  |%varavg| %total
---------------------------------------------------------------
Pair    | 46.875     | 49.848     | 52.871     |  28.5 | 58.90
Bond    | 0.20614    | 0.22553    | 0.24366    |   2.2 |  0.27
Kspace  | 13.531     | 16.61      | 19.435     |  48.5 | 19.63
Neigh   | 0.0036735  | 0.003697   | 0.003724   |   0.0 |  0.00
Comm    | 1.6181     | 1.7762     | 1.9235     |   7.6 |  2.10
Output  | 0.00063806 | 0.00082445 | 0.0028129  |   0.0 |  0.00
Modify  | 12.638     | 14.328     | 15.855     |  35.7 | 16.93
Other   |            | 1.835      |            |       |  2.17

Nlocal:          263.5 ave         277 max         253 min
Histogram: 1 2 2 0 1 4 0 1 0 1
Nghost:        4972.17 ave        5125 max        4705 min
Histogram: 4 0 0 0 0 0 0 0 2 6
Neighs:        90938.1 ave       97941 max       86426 min
Histogram: 4 1 1 0 2 0 2 1 0 1

Total # of neighbors = 1091257
Ave neighs/atom = 345.11607
Ave special neighs/atom = 2.0341556
Neighbor list builds = 1
Dangerous builds = 0
timestep 0.01
run ${Ninptpre}
run 10000
PPPM initialization ...
  extracting TIP4P info from pair style
  using 12-bit tables for long-range coulomb (../kspace.cpp:342)
  G vector (1/distance) = 0.30825315
  grid = 30 30 30
  stencil order = 5
  estimated absolute RMS force accuracy = 0.0040129566
  estimated relative force accuracy = 1.2084899e-05
  using double precision KISS FFT
  3d grid and FFT values/proc = 8228 2700
Generated 0 of 15 mixed pair_coeff terms from arithmetic mixing rule
Per MPI rank memory allocation (min/avg/max) = 16.41 | 16.47 | 16.8 Mbytes
   Step        Density          Temp          Press          TotEng    
     10000   0.92340294     950.4287       2477.5749      414.26799    
     11000   0.87912205     1032.3308     -4407.2988     -3011.9358    
     12000   0.84766476     768.77712     -7738.8742     -5158.0285    
     13000   0.83460844     678.54782     -8849.1508     -6608.8996    
     14000   0.83898592     588.87972     -8347.3604     -7787.3657    
     15000   0.85905348     538.69707     -7657.4885     -8773.5655    
     16000   0.89282971     506.36757     -5599.13       -9664.8479    
     17000   0.93542249     476.60065     -3485.4528     -10420.929    
     18000   0.98056294     467.30194     -1149.9996     -11027.929    
     19000   1.0232792      461.46271      668.89509     -11581.21     
     20000   1.0607193      442.17313      2764.2298     -12069.378    
Loop time of 83.6912 on 12 procs for 10000 steps with 3162 atoms

Performance: 0.103 ns/day, 232.476 hours/ns, 119.487 timesteps/s
94.5% CPU use with 12 MPI tasks x no OpenMP threads

MPI task timing breakdown:
Section |  min time  |  avg time  |  max time  |%varavg| %total
---------------------------------------------------------------
Pair    | 45.569     | 48.502     | 51.93      |  29.4 | 57.95
Bond    | 0.2119     | 0.22588    | 0.24091    |   1.6 |  0.27
Kspace  | 13.823     | 17.256     | 20.144     |  49.0 | 20.62
Neigh   | 0.048512   | 0.048653   | 0.04878    |   0.0 |  0.06
Comm    | 1.6113     | 1.646      | 1.6904     |   1.7 |  1.97
Output  | 0.0006454  | 0.00081341 | 0.0026257  |   0.0 |  0.00
Modify  | 12.385     | 14.202     | 15.75      |  35.8 | 16.97
Other   |            | 1.809      |            |       |  2.16

Nlocal:          263.5 ave         276 max         253 min
Histogram: 2 1 0 1 4 1 1 1 0 1
Nghost:        5569.25 ave        5636 max        5490 min
Histogram: 1 0 1 3 0 2 1 0 2 2
Neighs:         103251 ave      109577 max       98039 min
Histogram: 2 0 3 1 2 0 0 1 2 1

Total # of neighbors = 1239011
Ave neighs/atom = 391.84409
Ave special neighs/atom = 2.0341556
Neighbor list builds = 13
Dangerous builds = 0
timestep 0.1
run ${Ninptpre}
run 10000
PPPM initialization ...
  extracting TIP4P info from pair style
  using 12-bit tables for long-range coulomb (../kspace.cpp:342)
  G vector (1/distance) = 0.31159139
  grid = 30 30 30
  stencil order = 5
  estimated absolute RMS force accuracy = 0.0034965941
  estimated relative force accuracy = 1.0529889e-05
  using double precision KISS FFT
  3d grid and FFT values/proc = 8228 2700
Generated 0 of 15 mixed pair_coeff terms from arithmetic mixing rule
Per MPI rank memory allocation (min/avg/max) = 16.8 | 16.82 | 16.86 Mbytes
   Step        Density          Temp          Press          TotEng    
     20000   1.0607193      442.17313      2720.8136     -12069.377    
     21000   1.1378749      312.00296     -360.28117     -14899.749    
     22000   1.1431457      300.84087     -1002.0875     -15652.589    
     23000   1.1214517      301.2579      -479.15617     -15886.26     
     24000   1.1118327      295.22881     -779.75863     -16037.235    
     25000   1.1164158      295.90457      1161.3385     -16191.866    
     26000   1.1130679      294.43658      207.64905     -16352.139    
     27000   1.1005924      294.55828      605.51022     -16268.378    
     28000   1.0989778      302.086        45.085211     -16272.873    
     29000   1.1019652      291.25464      286.75894     -16333.387    
     30000   1.0949542      297.35232     -204.18753     -16251.923    
Loop time of 98.4339 on 12 procs for 10000 steps with 3162 atoms

Performance: 0.878 ns/day, 27.343 hours/ns, 101.591 timesteps/s
94.8% CPU use with 12 MPI tasks x no OpenMP threads

MPI task timing breakdown:
Section |  min time  |  avg time  |  max time  |%varavg| %total
---------------------------------------------------------------
Pair    | 56.583     | 60.622     | 64.129     |  30.1 | 61.59
Bond    | 0.21739    | 0.22821    | 0.24315    |   1.6 |  0.23
Kspace  | 14.688     | 18.212     | 22.217     |  54.7 | 18.50
Neigh   | 0.21711    | 0.21791    | 0.2186     |   0.1 |  0.22
Comm    | 1.8578     | 1.8937     | 1.9213     |   1.7 |  1.92
Output  | 0.00064416 | 0.00081659 | 0.0026614  |   0.0 |  0.00
Modify  | 13.613     | 15.422     | 16.94      |  34.4 | 15.67
Other   |            | 1.837      |            |       |  1.87

Nlocal:          263.5 ave         274 max         250 min
Histogram: 1 1 1 2 0 1 0 3 1 2
Nghost:        5651.75 ave        5699 max        5595 min
Histogram: 1 1 0 1 3 0 2 2 0 2
Neighs:         107122 ave      115156 max       99859 min
Histogram: 1 0 2 2 3 1 1 0 1 1

Total # of neighbors = 1285465
Ave neighs/atom = 406.53542
Ave special neighs/atom = 2.0341556
Neighbor list builds = 50
Dangerous builds = 0
timestep 0.2
run ${Ninptpre}
run 10000
PPPM initialization ...
  extracting TIP4P info from pair style
  using 12-bit tables for long-range coulomb (../kspace.cpp:342)
  G vector (1/distance) = 0.31234926
  grid = 30 30 30
  stencil order = 5
  estimated absolute RMS force accuracy = 0.0033882169
  estimated relative force accuracy = 1.0203515e-05
  using double precision KISS FFT
  3d grid and FFT values/proc = 8228 2700
Generated 0 of 15 mixed pair_coeff terms from arithmetic mixing rule
Per MPI rank memory allocation (min/avg/max) = 16.8 | 16.83 | 16.86 Mbytes
   Step        Density          Temp          Press          TotEng    
     30000   1.0949542      297.35232      723.73317     -16251.923    
     31000   1.0908518      300.10113     -333.80556     -16258.676    
     32000   1.0892408      304.35022      92.062592     -16250.612    
     33000   1.0937817      303.67615     -10.56331      -16358.613    
     34000   1.08903        297.73861     -1215.6254     -16363.887    
     35000   1.0820809      301.88714     -719.54196     -16308.608    
     36000   1.0774114      304.64013     -1257.4332     -16375.909    
     37000   1.0833048      296.77757     -604.07626     -16508.172    
     38000   1.0912205      304.23949     -587.12682     -16414.61     
     39000   1.0892359      299.03038     -41.847212     -16424.781    
     40000   1.0855298      297.64893     -23.501353     -16444.143    
Loop time of 99.1153 on 12 procs for 10000 steps with 3162 atoms

Performance: 1.743 ns/day, 13.766 hours/ns, 100.893 timesteps/s
94.5% CPU use with 12 MPI tasks x no OpenMP threads

MPI task timing breakdown:
Section |  min time  |  avg time  |  max time  |%varavg| %total
---------------------------------------------------------------
Pair    | 54.086     | 60.668     | 64.16      |  36.9 | 61.21
Bond    | 0.21414    | 0.22819    | 0.24615    |   1.7 |  0.23
Kspace  | 15.348     | 18.833     | 25.364     |  65.8 | 19.00
Neigh   | 0.39799    | 0.39908    | 0.40003    |   0.1 |  0.40
Comm    | 1.7913     | 1.8188     | 1.8528     |   1.4 |  1.84
Output  | 0.00065922 | 0.00082826 | 0.0026502  |   0.0 |  0.00
Modify  | 13.512     | 15.327     | 16.877     |  34.5 | 15.46
Other   |            | 1.841      |            |       |  1.86

Nlocal:          263.5 ave         279 max         249 min
Histogram: 1 0 1 2 2 1 3 1 0 1
Nghost:           5631 ave        5673 max        5576 min
Histogram: 1 1 1 1 2 1 1 0 1 3
Neighs:         106735 ave      122405 max       94381 min
Histogram: 1 1 1 2 3 1 2 0 0 1

Total # of neighbors = 1280819
Ave neighs/atom = 405.0661
Ave special neighs/atom = 2.0341556
Neighbor list builds = 93
Dangerous builds = 0
timestep 0.5
run ${Ninptpre}
run 10000
PPPM initialization ...
  extracting TIP4P info from pair style
  using 12-bit tables for long-range coulomb (../kspace.cpp:342)
  G vector (1/distance) = 0.31214329
  grid = 30 30 30
  stencil order = 5
  estimated absolute RMS force accuracy = 0.0034173619
  estimated relative force accuracy = 1.0291284e-05
  using double precision KISS FFT
  3d grid and FFT values/proc = 8228 2700
Generated 0 of 15 mixed pair_coeff terms from arithmetic mixing rule
Per MPI rank memory allocation (min/avg/max) = 16.8 | 16.83 | 16.86 Mbytes
   Step        Density          Temp          Press          TotEng    
     40000   1.0855298      297.64893     -83.559618     -16444.144    
     41000   1.0784514      296.39164     -986.21489     -16400.003    
     42000   1.0973767      295.6312       524.39722     -16425.096    
     43000   1.0786376      301.49597     -882.97734     -16359.231    
     44000   1.0903465      295.53007     -282.28429     -16395.116    
     45000   1.0934154      293.20384      211.39949     -16522.035    
     46000   1.0821584      303.43259     -701.12191     -16443.979    
     47000   1.0839717      298.36732     -741.96582     -16530.652    
     48000   1.0877516      291.61781      242.6624      -16469.964    
     49000   1.0775824      309.81614     -426.10591     -16404.553    
     50000   1.0843293      298.58496     -477.46502     -16475.744    
Loop time of 101.216 on 12 procs for 10000 steps with 3162 atoms

Performance: 4.268 ns/day, 5.623 hours/ns, 98.798 timesteps/s
94.1% CPU use with 12 MPI tasks x no OpenMP threads

MPI task timing breakdown:
Section |  min time  |  avg time  |  max time  |%varavg| %total
---------------------------------------------------------------
Pair    | 57.318     | 61.168     | 65.912     |  36.4 | 60.43
Bond    | 0.21646    | 0.22828    | 0.24057    |   1.6 |  0.23
Kspace  | 14.957     | 19.7       | 23.543     |  63.9 | 19.46
Neigh   | 1.0129     | 1.0156     | 1.0178     |   0.2 |  1.00
Comm    | 1.8435     | 1.8711     | 1.9023     |   1.4 |  1.85
Output  | 0.00064359 | 0.00081676 | 0.0026728  |   0.0 |  0.00
Modify  | 13.569     | 15.389     | 16.927     |  34.4 | 15.20
Other   |            | 1.843      |            |       |  1.82

Nlocal:          263.5 ave         277 max         238 min
Histogram: 1 0 0 0 0 5 1 1 1 3
Nghost:        5592.83 ave        5621 max        5546 min
Histogram: 1 1 1 1 1 0 1 0 2 4
Neighs:         106138 ave      118453 max       99264 min
Histogram: 1 4 1 2 2 0 0 0 0 2

Total # of neighbors = 1273650
Ave neighs/atom = 402.79886
Ave special neighs/atom = 2.0341556
Neighbor list builds = 235
Dangerous builds = 0
reset_timestep 0

# continuing the initialization with the final value of timestep
unfix integrate
fix integrate all rigid/npt/small molecule temp ${Temp} ${Temp} 100.0 iso ${Pres} ${Pres} 1000.0
fix integrate all rigid/npt/small molecule temp 298.15 ${Temp} 100.0 iso ${Pres} ${Pres} 1000.0
fix integrate all rigid/npt/small molecule temp 298.15 298.15 100.0 iso ${Pres} ${Pres} 1000.0
fix integrate all rigid/npt/small molecule temp 298.15 298.15 100.0 iso 1 ${Pres} 1000.0
fix integrate all rigid/npt/small molecule temp 298.15 298.15 100.0 iso 1 1 1000.0
  create bodies CPU = 0.000 seconds
  1054 rigid bodies with 3162 atoms
  1.4901671 = max distance from body owner to body atom

timestep ${tstep}
timestep 1
run ${Ninpt}
run 10000000
PPPM initialization ...
  extracting TIP4P info from pair style
  using 12-bit tables for long-range coulomb (../kspace.cpp:342)
  G vector (1/distance) = 0.31211691
  grid = 30 30 30
  stencil order = 5
  estimated absolute RMS force accuracy = 0.0034211111
  estimated relative force accuracy = 1.0302574e-05
  using double precision KISS FFT
  3d grid and FFT values/proc = 8228 2700
Generated 0 of 15 mixed pair_coeff terms from arithmetic mixing rule
Per MPI rank memory allocation (min/avg/max) = 16.8 | 16.83 | 16.86 Mbytes
   Step        Density          Temp          Press          TotEng    
         0   1.0843293      298.58496      2123.1959     -16475.744    
      1000   1.0853445      300.17946      432.00567     -16512.635    
      2000   1.0767127      303.88697      93.453762     -16463.932    
      3000   1.0749679      297.59523     -480.09096     -16489.478    
      4000   1.0843885      296.69764     -421.38707     -16544.285    
      5000   1.0733985      303.79709      277.88521     -16272.553    
      6000   1.087882       299.61643     -157.889       -16434.235    
      7000   1.0912436      295.12379      269.42622     -16478.054    
      8000   1.082999       298.27973     -441.53257     -16462.281    
      9000   1.0977118      294.88873      1074.7339     -16479.512    
     10000   1.0778868      299.06711     -725.60099     -16412.251    
     11000   1.0808542      296.69279      358.49283     -16421.796    
     12000   1.0670474      288.36653      370.89254     -16475.073    
     13000   1.0905169      303.21142      955.44222     -16405.495    
     14000   1.0776557      296.78937     -380.11301     -16478.128    
     15000   1.0938361      302.34784      856.44792     -16391.361    
     16000   1.0992154      309.68286      977.75551     -16435.373    
     17000   1.0835616      296.84581      292.50616     -16539.173    
     18000   1.0814358      308.21103     -34.045179     -16468.613    
     19000   1.0798444      298.74641      1144.4073     -16423.019    
     20000   1.0884187      296.03762      161.01372     -16477.708    
     21000   1.0756411      299.44673     -815.80493     -16452.517    
     22000   1.0799153      310.96272      169.48163     -16511.826    
     23000   1.0722933      296.88171     -167.63873     -16486.866    
     24000   1.076928       293.27096      352.18016     -16526.609    
     25000   1.0752899      288.65321     -492.99764     -16576.658    
     26000   1.0856939      297.97362     -575.74554     -16485.022    
     27000   1.0766674      293.03147      502.1717      -16521.002    
     28000   1.0721767      300.94328     -700.22849     -16501.541    
     29000   1.0837182      287.06959      216.87602     -16634.354    
     30000   1.0796738      296.00074      455.40481     -16594.984    
     31000   1.0795749      295.39453     -87.213167     -16498.818    
     32000   1.0851679      296.02756     -190.76995     -16569.773    
     33000   1.0841976      286.24521      198.45403     -16621.442    
     34000   1.0898619      291.11245     -576.34549     -16564.12     
     35000   1.0975516      298.52396     -387.00766     -16386.781    
     36000   1.0821479      300.05815      148.72578     -16483.81     
     37000   1.0852229      297.02038      433.40601     -16529.993    
     38000   1.0834916      288.7513       515.41711     -16628.005    
     39000   1.0858585      301.57133      406.32903     -16432.011    
     40000   1.0809752      300.58409      240.29519     -16441.428    
     41000   1.0834361      298.21434     -722.34287     -16457.83     
     42000   1.0789153      304.02013      40.67996      -16511.173    
     43000   1.0754987      298.49515      345.76882     -16461.596    
     44000   1.07452        298.16471      481.57418     -16514.259    
     45000   1.0821009      301.36664     -435.5857      -16478.242    
     46000   1.0827456      293.83601      1027.9698     -16555.882    
     47000   1.0656772      299.96778     -358.12703     -16572.262    
     48000   1.0826327      296.43601      624.82243     -16564.34     
     49000   1.0742216      294.70717     -533.08543     -16593.024    
     50000   1.0741508      287.9364      -232.45946     -16634.638    
     51000   1.0737176      302.67576     -306.53384     -16568.598    
     52000   1.073044       304.19174     -2.477773      -16473.9      
     53000   1.0676355      298.55484      41.770968     -16512.117    
     54000   1.076164       297.24763     -213.92457     -16509.749    
     55000   1.0670299      293.22641     -282.77071     -16541.007    
     56000   1.0712764      301.16206     -140.85325     -16494.052    
     57000   1.0778463      289.63228     -543.81354     -16588.046    
     58000   1.0650616      288.73648     -1281.0729     -16611.602    
     59000   1.0763475      290.5284      -110.96209     -16567.232    
     60000   1.081254       294.67565      343.17992     -16531.815    
     61000   1.0753477      298.80285     -497.80607     -16554.032    
     62000   1.072742       307.67176     -270.76466     -16507.987    
     63000   1.071559       298.90994     -233.48004     -16545.797    
     64000   1.078012       286.61181      322.4676      -16667.164    
     65000   1.0749442      295.045        164.1876      -16572.996    
     66000   1.0757834      293.81359      991.0338      -16537.929    
     67000   1.0681858      295.653        22.66614      -16577.513    
     68000   1.0737959      296.23572     -545.76842     -16631.319    
     69000   1.0817255      303.0316      -29.716621     -16575.166    
     70000   1.0780156      301.11154     -411.07012     -16509.338    
     71000   1.0817198      298.68689     -306.09864     -16510.247    
     72000   1.0667858      305.07884     -313.34224     -16549.805    
     73000   1.0844251      296.56702      231.43099     -16650.149    
     74000   1.0746051      300.37955     -437.23306     -16496.203    
     75000   1.0735958      298.36412     -554.97914     -16543.968    
     76000   1.0878579      299.88419      190.05964     -16543.955    
     77000   1.0667481      300.12946     -779.23483     -16534.176    
     78000   1.0833519      304.92543      370.78499     -16536.063    
     79000   1.0731833      304.53467      475.77619     -16485.137    
     80000   1.0855312      292.15004      182.14287     -16582.719    
     81000   1.0936706      288.38881     -159.57304     -16748.875    
     82000   1.0764913      298.96124      56.805969     -16600.969    
     83000   1.0611165      300.41624     -646.32007     -16529.957    
     84000   1.0730991      297.66194      393.23078     -16596.14     
     85000   1.0630706      300.52283     -331.96793     -16606.821    
     86000   1.0649637      301.05213     -585.97232     -16487.199    
     87000   1.0775924      289.57685      320.04678     -16604.779    
     88000   1.0707773      289.7113      -416.75659     -16654.451    
     89000   1.0894086      303.30736      1085.2562     -16538.564    
     90000   1.0748526      299.9714      -687.12234     -16464.535    
     91000   1.0855617      286.94952      310.13803     -16616.379    
     92000   1.0741232      300.18324     -385.16491     -16571.334    
     93000   1.0809722      305.95354      189.68376     -16544.412    
     94000   1.0684528      302.03673     -230.00379     -16432.288    
     95000   1.0973849      300.38391      987.4324      -16552.579    
     96000   1.080878       303.4281      -148.47864     -16592.276    
     97000   1.0870365      301.36676      309.52798     -16543.495    
     98000   1.0885257      297.30966     -181.8687      -16652.796    
     99000   1.0785984      297.96071     -159.39903     -16477.99     
    100000   1.0879065      301.75246     -752.15336     -16538.854    
    101000   1.0836106      299.932       -239.99303     -16551.348    
    102000   1.070913       300.91886     -608.04658     -16479.457    
    103000   1.0631185      290.6956      -670.10061     -16563.143    
    104000   1.085886       294.76353     -105.93231     -16590.756    
    105000   1.0786558      301.03307      217.95724     -16474.668    
    106000   1.0806474      299.89018      468.82551     -16566.772    
    107000   1.0828881      308.49156      183.86376     -16427.904    
    108000   1.0803132      288.81161      191.42732     -16540.116    
    109000   1.0779215      297.32939     -72.093473     -16538.934    
    110000   1.0804159      294.3776       694.17045     -16599.069    
    111000   1.0795184      297.89943      200.27014     -16514.27     
    112000   1.0766486      298.30962      189.82236     -16443.265    
    113000   1.0832405      293.69081     -162.50883     -16600.73     
    114000   1.0796281      303.25761     -119.84919     -16492.962    
    115000   1.084449       301.95178     -54.927733     -16486.414    
    116000   1.0827843      292.30294      126.55557     -16621.84     
    117000   1.0797137      298.08578      376.80484     -16619.892    
    118000   1.0771444      299.76995     -76.996351     -16551.455    
    119000   1.084773       301.6083       517.09092     -16498.986    
    120000   1.0748674      293.47648     -1218.691      -16569.149    
    121000   1.0770741      296.95222     -1222.3172     -16594.28     
    122000   1.0809079      294.13235      143.89254     -16634.045    
    123000   1.0777839      305.35258     -350.92366     -16496.234    
    124000   1.0811681      291.74488      194.95982     -16530.435    
    125000   1.0740614      297.49464      287.48017     -16527.324    
    126000   1.0817295      304.96152      531.38533     -16461.968    
    127000   1.0701653      295.51547     -1497.0908     -16612.023    
    128000   1.0772566      307.26595      580.0014      -16558.142    
    129000   1.0625493      294.51872     -725.62007     -16644.801    
    130000   1.0741218      289.27788      568.65763     -16597.171    
    131000   1.0780394      299.27186      22.184765     -16538.795    
    132000   1.0831604      284.26953      87.653221     -16595.483    
    133000   1.0671335      301.72838     -51.001157     -16481.264    
    134000   1.0724746      302.48258     -200.86739     -16465.326    
    135000   1.07727        304.25603      77.313783     -16440.045    
    136000   1.0734618      305.10287     -478.69874     -16392.762    
    137000   1.0844228      293.98032      553.79127     -16641.722    
    138000   1.064176       291.84844     -1030.8164     -16488.994    
    139000   1.0829861      289.82598      173.05358     -16564.862    
    140000   1.0633507      302.49226      74.444572     -16444.65     
    141000   1.0678619      300.99667      212.76904     -16476.886    
    142000   1.0715635      297.46871     -390.26849     -16476.039    
    143000   1.0893552      294.12277      832.68142     -16551.769    
    144000   1.0737171      296.86513      686.81651     -16574.654    
    145000   1.0658433      298.17321      224.25735     -16509.758    
    146000   1.0755814      297.89352      879.59102     -16448.562    
    147000   1.0795998      306.15575     -55.627579     -16415.384    
    148000   1.0766376      296.88187     -885.59659     -16547.347    
    149000   1.0712142      296.23797     -1044.6825     -16504.258    
    150000   1.0806945      301.21913      304.09438     -16462.1      
    151000   1.0675016      294.77173     -394.4335      -16485.725    
    152000   1.0956986      293.2882       407.38945     -16597.64     
    153000   1.0793488      303.41209      345.20548     -16511.359    
    154000   1.0682785      293.44121      74.841355     -16559.425    
    155000   1.0866977      304.87489      511.20717     -16505.887    
    156000   1.0776168      298.67138      77.758286     -16532.875    
    157000   1.0704975      299.77536      365.39405     -16569.158    
    158000   1.0877582      293.73688      591.78701     -16550.06     
    159000   1.0768713      292.29487      107.99547     -16635.174    
    160000   1.0779842      307.37872      332.27696     -16436.78     
    161000   1.0770526      297.85981     -1145.2293     -16585.11     
    162000   1.0807052      304.75644     -286.00875     -16417.802    
    163000   1.0735216      295.43481      532.26681     -16460.967    
    164000   1.0672363      301.80411     -241.18383     -16461.492    
    165000   1.0725586      296.69924     -770.07539     -16532.484    
    166000   1.0841197      304.59368      208.58523     -16607.302    
    167000   1.0856972      297.38319      460.2123      -16441.748    
    168000   1.0795395      304.6354      -34.560973     -16496.115    
    169000   1.0824404      301.67697      625.23502     -16523.261    
    170000   1.0624375      300.93023     -61.503493     -16471.453    
    171000   1.087135       293.72904      922.05242     -16551.67     
    172000   1.0579281      301.14328     -537.36806     -16418.279    
    173000   1.0811515      290.81201      137.56012     -16608.651    
    174000   1.0808228      302.7398      -476.37775     -16469.889    
    175000   1.0874841      299.07212      138.40115     -16599.116    
    176000   1.076494       293.44812      175.12714     -16573.045    
    177000   1.0792638      295.94757     -793.29393     -16510.019    
    178000   1.0790707      297.39375      253.33094     -16539.739    
    179000   1.0739772      307.11265     -13.366282     -16454.31     
    180000   1.0781296      296.61352      1084.7871     -16618.881    
    181000   1.0832226      291.48552     -318.1021      -16529.957    
    182000   1.088341       292.36283     -701.13445     -16647.171    
    183000   1.0812756      316.54036     -151.86167     -16405.904    
    184000   1.0805142      298.14919      866.97525     -16536.951    
    185000   1.076406       295.4546      -752.30012     -16573.285    
    186000   1.0851257      296.68819      696.69924     -16515.599    
    187000   1.0697654      295.96172      235.13343     -16575.818    
    188000   1.0675523      301.08563     -232.66789     -16515.347    
    189000   1.0731455      294.59768     -415.85702     -16659.074    
    190000   1.0745361      303.80564     -380.00796     -16481.557    
    191000   1.0869395      302.47112      797.75674     -16530.398    
    192000   1.0767922      295.84286     -201.64207     -16519.532    
    193000   1.0834317      299.70645     -122.39941     -16544.646    
    194000   1.0765509      297.74924     -588.29168     -16498.639    
    195000   1.0786068      298.77775      180.90812     -16536.373    
    196000   1.0768373      302.20586     -64.606763     -16436.408    
    197000   1.0759359      293.29199      770.87746     -16556.207    
    198000   1.0890982      303.45812      122.48827     -16540.044    
    199000   1.0789869      300.12308     -843.07782     -16533.237    
    200000   1.0778646      303.86546      587.45174     -16400.897    
    201000   1.0806843      301.66555     -196.00681     -16456.595    
    202000   1.0644845      290.04948     -43.619152     -16529.074    
    203000   1.0898663      295.44501      1153.9357     -16491.837    
    204000   1.0820287      300.23786      220.2789      -16515.445    
    205000   1.0958637      304.6359      -473.40706     -16539.22     
    206000   1.073836       291.74713     -268.33899     -16513.199    
    207000   1.0857207      296.46881      185.59273     -16530.395    
    208000   1.0663649      302.78508     -53.17765      -16470.752    
    209000   1.084771       299.15602      478.88382     -16474.813    
    210000   1.0754029      291.46153     -70.149345     -16555.587    
    211000   1.087564       304.10546      1271.8631     -16481.932    
    212000   1.0820272      298.11779     -358.09112     -16664.226    
    213000   1.0685037      290.46604     -572.72696     -16507.122    
    214000   1.0823738      302.89453     -461.33898     -16522.326    
    215000   1.0918401      300.3591       244.8221      -16552.987    
    216000   1.0695055      301.27444     -152.75073     -16577.561    
    217000   1.0778198      306.53853      200.21569     -16545.295    
    218000   1.082432       302.26017      319.58225     -16469.157    
    219000   1.0769625      289.59352     -596.67147     -16576.213    
    220000   1.0817665      301.73536      25.343257     -16498.593    
    221000   1.0721813      291.66776     -387.7069      -16626.177    
    222000   1.0749542      288.42361     -323.05973     -16548.238    
    223000   1.0861274      286.67416     -641.60823     -16591.718    
    224000   1.0796778      291.79188     -196.25098     -16617.309    
    225000   1.0792064      288.09575      388.75097     -16567.364    
    226000   1.0655007      303.07541     -456.36013     -16498.955    
    227000   1.0792792      293.63977      1033.788      -16622.201    
    228000   1.0838865      298.60299      277.614       -16504.281    
    229000   1.0742478      304.28828     -594.22461     -16504.682    
    230000   1.0814579      296.76403     -180.87278     -16580.61     
    231000   1.0856541      291.88822      568.40374     -16635.801    
    232000   1.0709603      289.31975     -649.69973     -16581.744    
    233000   1.0801886      301.81951     -284.53027     -16473.455    
    234000   1.079129       300.79725      608.31126     -16472.944    
    235000   1.0745891      300.10334      692.91217     -16475.821    
    236000   1.0925197      289.92996     -241.20995     -16612.479    
    237000   1.0747289      287.72925     -427.60784     -16508.438    
    238000   1.0926369      302.33883      470.01168     -16495.802    
    239000   1.0709021      294.89136     -278.28532     -16552.568    
    240000   1.0732486      299.739        143.40876     -16488.921    
    241000   1.0656454      304.02587     -498.3652      -16492.282    
    242000   1.0727855      306.1595      -698.88744     -16463.585    
    243000   1.0787416      292.11826     -184.35726     -16506.689    
    244000   1.091518       292.18388      174.87233     -16588.032    
    245000   1.0673984      295.60975     -768.52817     -16515.544    
    246000   1.0726917      288.6056       144.23228     -16584.899    
    247000   1.0880385      305.6907       613.51865     -16457.849    
    248000   1.0837505      294.44584     -255.59659     -16572.211    
    249000   1.0807409      299.28716     -130.58048     -16562.639    
    250000   1.0806329      301.45514      333.27221     -16456.701    
    251000   1.0772328      295.48736     -177.76723     -16506.986    
    252000   1.0761592      302.14477      171.79416     -16519.373    
    253000   1.0916252      289.57079      355.18113     -16608.112    
    254000   1.0785797      294.41015      514.77584     -16565.552    
    255000   1.0785456      297.173       -60.026723     -16580.749    
    256000   1.0735812      292.69901      5.9332048     -16487.814    
    257000   1.0835494      295.92156      0.82915145    -16681.934    
    258000   1.0783285      299.85635      696.24652     -16558.261    
    259000   1.0808336      298.89546      356.48125     -16525.81     
    260000   1.094257       298.30827      602.59267     -16547.697    
    261000   1.0756984      305.49757      266.24937     -16427.4      
    262000   1.0936875      300.64567      1283.4458     -16529.033    
    263000   1.0657628      287.52778     -1102.9413     -16642.866    
    264000   1.080632       293.26285     -158.35091     -16619.231    
    265000   1.0888324      290.3147       481.11058     -16583.958    
    266000   1.0818581      301.22546     -227.09429     -16526.506    
    267000   1.0819727      302.00901     -315.14297     -16455.314    
    268000   1.0929362      292.38757     -841.32291     -16637.322    
    269000   1.0960061      299.06312      671.93735     -16561.027    
    270000   1.0869588      308.47117      1060.6699     -16539.21     
    271000   1.0808653      297.76119      74.43303      -16598.804    
    272000   1.0772637      295.3827       140.58311     -16578.841    
    273000   1.0722319      291.83657      138.43926     -16526.104    
    274000   1.0902609      300.9058       578.28156     -16548.567    
    275000   1.0769822      285.11892     -111.75381     -16654.349    
    276000   1.081872       297.60913      153.9053      -16549.007    
    277000   1.0819336      295.73362      797.45833     -16514.586    
    278000   1.0691735      297.56612     -580.09826     -16437.785    
    279000   1.0930762      298.49501      706.37619     -16595.43     
    280000   1.0880835      304.94582      340.46029     -16482.925    
    281000   1.0716256      296.16714      120.4655      -16544.437    
    282000   1.0814773      293.816        413.30928     -16603.501    
    283000   1.0636318      299.37376      196.73132     -16566.944    
    284000   1.0747512      288.86782      538.70533     -16665.135    
    285000   1.0802801      292.17004      437.21247     -16598.501    
    286000   1.081787       292.42532     -600.27813     -16580.986    
    287000   1.0881449      299.87811      431.86507     -16612.989    
    288000   1.0785917      302.1125       1.8910693     -16553.536    
    289000   1.0731887      300.2086      -155.31657     -16564.974    
    290000   1.089426       296.93051      298.59824     -16594.061    
    291000   1.0807501      299.07769      525.90651     -16430.778    
    292000   1.0914739      314.36767      23.025247     -16470.836    
    293000   1.0847475      294.46096     -15.122528     -16501.874    
    294000   1.0811729      298.55959      244.95422     -16526.717    
    295000   1.0802463      297.18505      52.942063     -16504.126    
    296000   1.0704675      295.90484      442.7961      -16564.815    
    297000   1.0636412      301.75536     -468.43095     -16457.932    
    298000   1.0790679      286.10223      153.4157      -16590.59     
    299000   1.0698675      294.41029     -722.50519     -16632.801    
    300000   1.0886915      293.83829      130.92996     -16559.591    
    301000   1.0739357      299.48401     -562.29267     -16531.076    
    302000   1.089486       297.52147      642.05296     -16559.917    
    303000   1.0675744      291.67489     -392.32915     -16555.677    
    304000   1.0790319      286.30199      125.59087     -16671.294    
    305000   1.0606637      297.32259     -400.95573     -16503.08     
    306000   1.082138       297.83652      321.1241      -16499.481    
    307000   1.0872901      300.56017     -229.71142     -16557.633    
    308000   1.0900831      290.0502       157.68246     -16577.372    
    309000   1.0757148      303.41151     -583.31252     -16493.177    
    310000   1.0917422      310.13244      200.61352     -16509.37     
    311000   1.0950472      288.22802      87.680977     -16735.147    
    312000   1.0858093      300.39253      467.80178     -16507.32     
    313000   1.0817411      290.81356      4.5118411     -16556.557    
    314000   1.0817594      297.60513      292.11394     -16544.06     
    315000   1.070555       309.908       -191.55044     -16426.096    
    316000   1.0819645      293.36421      687.33527     -16617.704    
    317000   1.090472       294.12751      492.36597     -16634.708    
    318000   1.0752049      294.34586     -1208.9334     -16488.476    
    319000   1.098642       293.80742      906.19889     -16570.973    
    320000   1.06992        294.58172     -427.25872     -16558.275    
    321000   1.0832039      302.5825       93.535941     -16553.622    
    322000   1.0689793      294.73396     -585.58336     -16466.566    
    323000   1.0789393      290.43693      5.3389596     -16639.495    
    324000   1.0657255      300.29124     -362.83393     -16545.229    
    325000   1.078934       295.73213      229.51349     -16495.019    
    326000   1.0731816      296.53535     -300.02425     -16507.476    
    327000   1.0811013      294.35461      344.17806     -16548.456    
    328000   1.0943169      299.69874     -70.873448     -16503.011    
    329000   1.0693987      299.97086     -367.99938     -16413.478    
    330000   1.0932393      301.08919      870.71689     -16637.969    
    331000   1.0779887      288.79782     -154.29961     -16575.785    
    332000   1.0876767      297.9993      -201.35249     -16505.682    
    333000   1.0900379      297.05232     -201.82588     -16565.819    
    334000   1.0899759      299.26968     -428.98343     -16564.654    
    335000   1.0730854      313.21417      93.853516     -16352.205    
    336000   1.0638875      301.01099     -584.98606     -16533.844    
    337000   1.071452       305.1729       216.79187     -16430.975    
    338000   1.080108       294.84742     -89.441479     -16634.984    
    339000   1.0794811      310.79234      451.10395     -16469.75     
    340000   1.0730039      297.27765     -157.39709     -16583.787    
    341000   1.0879105      296.98354      631.70841     -16544.354    
    342000   1.0837417      300.85128     -86.781969     -16520.413    
    343000   1.0844649      304.30196      281.75748     -16403.593    
    344000   1.0611116      296.28346     -552.82046     -16524.883    
    345000   1.0798463      295.85073      537.20623     -16534.098    
    346000   1.087328       302.38589      205.98807     -16553.089    
    347000   1.0785342      306.03642     -139.75444     -16483.391    
    348000   1.0784338      298.08262      47.920979     -16453.245    
    349000   1.0761743      290.35995      127.41609     -16609.219    
    350000   1.0823195      298.27271     -35.385116     -16481.223    
    351000   1.0887125      294.75886      245.06161     -16654.927    
    352000   1.0694052      308.6954      -696.06753     -16346.198    
    353000   1.0825174      291.31389      1010.7446     -16530.859    
    354000   1.071235       289.56413     -767.50751     -16573.799    
    355000   1.0824137      296.82693      954.64436     -16576.832    
    356000   1.0795889      290.78279      490.07801     -16616.714    
    357000   1.07632        290.89043      219.76474     -16641.632    
    358000   1.0819186      289.14126     -167.75413     -16627.927    
    359000   1.0890478      291.99009      10.979204     -16603.321    
    360000   1.0794963      304.75624      734.05687     -16494.732    
    361000   1.0765117      304.70656      293.69472     -16442.796    
    362000   1.0735145      296.37969      15.56535      -16463.14     
    363000   1.0743119      296.4389      -291.27556     -16434.029    
    364000   1.0880117      302.16935      440.84601     -16503.484    
    365000   1.0748267      302.60544      467.49414     -16367.942    
    366000   1.070244       296.33379     -158.06031     -16458.137    
    367000   1.0860017      291.95986      487.54884     -16583.394    
    368000   1.0727919      296.44089     -193.12083     -16514.369    
    369000   1.0781301      300.52323      349.01726     -16392.424    
    370000   1.0858702      301.78269     -176.32094     -16439.06     
    371000   1.0950597      299.76278      504.06303     -16562.875    
    372000   1.0837112      304.58806     -77.390827     -16517.229    
    373000   1.0732472      307.43976     -414.1406      -16524.782    
    374000   1.0838114      303.05119      196.5752      -16496.745    
    375000   1.0712389      299.99457     -683.25287     -16537.959    
    376000   1.0810888      291.34688     -586.02763     -16636.594    
    377000   1.0928611      297.86202      1010.0359     -16596.346    
    378000   1.0743252      299.78882     -79.204553     -16393.337    
    379000   1.0939197      290.97717      218.31156     -16588.783    
    380000   1.0789367      300.65612     -801.5896      -16547        
    381000   1.0815594      288.41281     -522.24759     -16627.017    
    382000   1.0675687      297.69812      907.69086     -16517.685    
    383000   1.0815731      306.64984      251.08391     -16526.68     
    384000   1.0880121      297.01833      318.97338     -16606.676    
    385000   1.0835994      290.67381     -81.317966     -16675.308    
    386000   1.0722167      295.2421      -309.14922     -16536.503    
    387000   1.0746278      291.05862     -176.37639     -16557.979    
    388000   1.0742861      307.85166      274.0317      -16434.522    
    389000   1.0768973      288.48563     -123.79938     -16603.348    
    390000   1.0839537      301.74498     -97.763199     -16562.331    
    391000   1.0729124      300.80005     -267.21815     -16620.358    
    392000   1.0745305      289.54384     -517.30313     -16532.965    
    393000   1.0852383      291.38643     -345.06454     -16530.627    
    394000   1.082804       287.12383     -287.82136     -16617.365    
    395000   1.0822861      293.92632      114.57825     -16523.934    
    396000   1.0966593      290.69521      735.18408     -16596.328    
    397000   1.0849927      299.16556      234.44474     -16449.652    
    398000   1.0911282      297.66028      50.832117     -16566.57     
    399000   1.0802785      304.92865     -172.34493     -16435.157    
    400000   1.070614       291.85132     -1134.0514     -16572.825    
    401000   1.0899406      290.98056      350.56295     -16571.096    
    402000   1.0659231      301.43438     -599.02553     -16492.238    
    403000   1.079235       294.81158     -376.91512     -16615.76     
    404000   1.075661       301.67972     -274.31532     -16505.326    
    405000   1.0861944      302.34508      484.37412     -16585.517    
    406000   1.0853631      302.97153     -932.52186     -16571.065    
    407000   1.0786756      289.04329      429.90565     -16517.449    
    408000   1.0663002      288.20974      435.34917     -16541.1      
    409000   1.0536619      305.1971       336.3517      -16456.435    
    410000   1.0783688      297.0302       901.3813      -16514.919    
    411000   1.0730038      302.53668     -420.16037     -16480.197    
    412000   1.082387       293.40571      488.23881     -16592.206    
    413000   1.0730439      293.02407     -3.3991717     -16544.702    
    414000   1.0800581      300.96466      136.86155     -16503.943    
    415000   1.084603       292.48677      444.20371     -16492.155    
    416000   1.0727387      299.33192     -799.8971      -16506.417    
    417000   1.0745061      300.92598     -282.17808     -16469.861    
    418000   1.0670488      295.28126      115.45971     -16518.951    
    419000   1.0808766      295.06259      90.812249     -16520.57     
    420000   1.0735108      290.69547     -11.207761     -16540.706    
    421000   1.0766725      300.85749      87.178544     -16535.073    
    422000   1.0708473      297.31545      604.39212     -16508.245    
    423000   1.0723821      292.05576      936.32459     -16670.137    
    424000   1.0711791      307.40788     -297.21889     -16433.435    
    425000   1.0755165      286.24006     -16.316166     -16665.517    
    426000   1.0704443      304.46251     -38.90964      -16448.081    
    427000   1.081344       292.76146     -4.6935152     -16584.179    
    428000   1.0850313      302.97724      186.08657     -16544.525    
    429000   1.0651754      292.97561     -1001.3656     -16511.999    
    430000   1.0924776      302.2389       549.80063     -16536.08     
    431000   1.0768548      304.33062     -498.08164     -16367.753    
    432000   1.0799917      293.83246      319.73326     -16530.561    
    433000   1.0624815      306.66641     -984.14291     -16398.356    
    434000   1.0768757      289.21578      413.18541     -16628.238    
    435000   1.0719812      297.10552      118.79259     -16477.517    
    436000   1.069325       294.61569     -483.90779     -16580.705    
    437000   1.0658001      299.03671      16.986485     -16510.145    
    438000   1.0777356      300.17102      427.68057     -16534.723    
    439000   1.0830203      297.07977     -647.75951     -16539.197    
    440000   1.0869223      304.50178     -421.8828      -16528.355    
    441000   1.0705184      298.39907     -506.47001     -16581.579    
    442000   1.0648283      294.77864      500.51602     -16577.004    
    443000   1.063553       292.33458     -216.06812     -16566.159    
    444000   1.0786879      294.19396     -289.36579     -16577.211    
    445000   1.0762109      294.26728      782.58819     -16462.139    
    446000   1.0748751      299.77302     -441.12842     -16472.287    
    447000   1.0792802      304.44843     -28.334436     -16491.709    
    448000   1.0868991      300.43052      1051.6438     -16517.528    
    449000   1.0822734      290.16567      640.52564     -16537.875    
    450000   1.0796632      294.45362     -90.580709     -16551.837    
    451000   1.0751157      303.89874      200.53614     -16509.005    
    452000   1.0720031      312.18241     -293.60981     -16450.704    
    453000   1.0768602      293.60099      386.97216     -16602.782    
    454000   1.0659759      308.51755     -159.5415      -16487.771    
    455000   1.0781227      300.881        40.954037     -16537.823    
    456000   1.0799484      300.36825     -177.76539     -16487.502    
    457000   1.0790352      303.51006     -557.33091     -16462.171    
    458000   1.0830403      295.03665      804.55645     -16558.124    
    459000   1.0736071      296.82987     -288.69769     -16595.101    
    460000   1.0894965      293.38005     -229.98956     -16525.905    
    461000   1.0691838      292.47553     -20.211193     -16585.624    
    462000   1.0900376      307.4565       951.91331     -16474.76     
    463000   1.0733574      304.80634     -170.45816     -16390.21     
    464000   1.0882365      299.44682      585.14861     -16602.019    
    465000   1.0683442      290.34208     -265.22212     -16699.648    
    466000   1.0803139      288.67129      287.37733     -16658.414    
    467000   1.0918671      299.9591       55.19505      -16609.223    
    468000   1.0843475      298.419       -357.74645     -16543.411    
    469000   1.0814879      294.7222       10.637895     -16591.636    
    470000   1.0913627      303.13435      113.01402     -16523.466    
    471000   1.0889045      293.96182     -1092.1806     -16611.714    
    472000   1.0836517      304.89491     -7.5688816     -16486.435    
    473000   1.0744791      297.60208      49.24509      -16579.193    
    474000   1.0714544      290.16786     -403.56007     -16701.401    
    475000   1.0802233      300.62694     -307.97093     -16616.968    
    476000   1.0720508      295.94871      744.11512     -16604.277    
    477000   1.0800958      303.15323      891.04451     -16548.067    
    478000   1.0784768      295.50805     -310.06326     -16547.127    
    479000   1.0769621      293.026        51.372186     -16646.307    
    480000   1.0738205      296.96846     -610.11356     -16607.869    
    481000   1.0722657      300.284       -397.20558     -16483.316    
    482000   1.0760496      293.94472     -41.751919     -16602.417    
    483000   1.0683017      302.19678      37.228749     -16533.855    
    484000   1.0809346      295.26327     -149.97115     -16646.154    
    485000   1.073019       294.64155     -340.51709     -16487.516    
    486000   1.1013911      303.67241      988.51861     -16578.716    
    487000   1.0719692      295.07033     -491.60219     -16402.449    
    488000   1.0945053      294.76724      383.2325      -16417.37     
    489000   1.0799219      306.78599     -608.08176     -16450.184    
    490000   1.0749822      295.59648     -288.07858     -16588.73     
    491000   1.0808841      299.66731     -229.05847     -16563.456    
    492000   1.0802717      306.42935      968.49259     -16441.147    
    493000   1.076351       304.20875     -53.257154     -16483.024    
    494000   1.0871445      300.59508      574.47423     -16558.514    
    495000   1.0763824      291.86516      180.26775     -16596.42     
    496000   1.0740965      298.30518      7.8175037     -16501.38     
    497000   1.0767167      303.15122     -386.72667     -16550.651    
    498000   1.0862969      304.55921      1453.2682     -16494.957    
    499000   1.0733035      305.56317      44.676946     -16516.982    
    500000   1.0869258      299.75143      536.39515     -16549.694    
    501000   1.079846       296.25394     -162.0608      -16487.395    
    502000   1.0746013      309.27146     -595.73489     -16465.352    
    503000   1.0851928      298.90245      643.64102     -16460.304    
    504000   1.0791721      289.96074      234.69585     -16639.805    
    505000   1.0773854      287.75993     -554.13818     -16638.633    
    506000   1.0770117      302.07341     -932.35336     -16610.1      
    507000   1.0771278      298.06066      187.64544     -16494.285    
    508000   1.0820029      296.29788     -726.18421     -16524.194    
    509000   1.0980665      298.60464      753.49902     -16566.418    
    510000   1.0863001      294.36084     -310.15343     -16506.87     
    511000   1.0864769      304.22658      737.02841     -16526.89     
    512000   1.0950274      289.44275     -222.38733     -16632.79     
    513000   1.0902568      288.51874      437.88471     -16612.661    
    514000   1.084443       298.15336     -16.222318     -16579.12     
    515000   1.0929725      301.02833     -8.6585055     -16674.035    
    516000   1.0814858      301.60585      109.45686     -16539.977    
    517000   1.0901517      303.75543      436.35535     -16502.555    
    518000   1.0752         295.30681     -272.67182     -16536.989    
    519000   1.0962552      297.75505      860.75949     -16567.711    
    520000   1.0747262      297.72131     -149.5155      -16487.129    
    521000   1.0722536      292.19639     -529.86052     -16570.194    
    522000   1.0783456      295.43568      680.93322     -16617.213    
    523000   1.0786557      304.30493     -233.31749     -16422.346    
    524000   1.0792289      294.54469      53.986934     -16592.518    
    525000   1.086965       306.23844      582.82148     -16456.674    
    526000   1.0840952      287.58772     -330.77255     -16657.543    
    527000   1.0875117      293.5675      -94.38824      -16686.628    
    528000   1.0816558      296.2689      -579.63026     -16596.608    
    529000   1.07418        301.685       -201.02255     -16516.849    
    530000   1.0765923      301.0625      -0.32130481    -16582.217    
    531000   1.0779794      300.41296     -456.94257     -16564.79     
    532000   1.0793265      303.32517      269.01498     -16541.415    
    533000   1.0879241      290.75445     -354.2147      -16627.218    
    534000   1.0774122      300.23242     -237.02043     -16450.162    
    535000   1.0858971      298.35787      208.64926     -16603.272    
    536000   1.0704681      306.39662     -396.63964     -16489.072    
    537000   1.0753991      301.13284      542.36241     -16597.294    
    538000   1.0642565      295.04468     -1078.8475     -16547.441    
    539000   1.0782479      300.89304     -199.4536      -16535.254    
    540000   1.0770319      304.98465     -907.01123     -16473.857    
    541000   1.08597        301.9496       67.242625     -16534.24     
    542000   1.0792954      301.25392     -723.34002     -16442.769    
    543000   1.0741332      305.39328      69.132373     -16438.359    
    544000   1.0885022      303.0099       338.63015     -16505.262    
    545000   1.0721099      293.50995     -698.78843     -16435.055    
    546000   1.0707929      301.48802      109.27142     -16531.823    
    547000   1.0710309      293.28946     -122.33976     -16616.725    
    548000   1.0661842      289.75672     -94.662597     -16477.89     
    549000   1.0722948      294.87623      406.46993     -16501.714    
    550000   1.0777198      303.34441      503.25797     -16476.298    
    551000   1.0793155      294.41354      912.01356     -16530.797    
    552000   1.075724       302.68017     -199.59402     -16538.026    
    553000   1.0807566      301.68915     -87.395658     -16522.242    
    554000   1.0803031      299.37566      451.17782     -16521.005    
    555000   1.0818453      297.24051     -280.4614      -16587.797    
    556000   1.0757467      298.95237     -169.83668     -16510.339    
    557000   1.0699848      300.50901      101.0404      -16452.133    
    558000   1.0786105      299.56952      116.0489      -16530.647    
    559000   1.0636824      299.70757     -142.74875     -16587.537    
    560000   1.0849811      305.59982      902.56124     -16482.728    
    561000   1.0729853      289.47755     -1098.0948     -16554.168    
    562000   1.0808174      307.53831     -358.26052     -16429.392    
    563000   1.0871432      293.4025       973.03033     -16501.011    
    564000   1.0790054      294.36463     -65.5582       -16548.768    
    565000   1.0763467      300.08616      376.32307     -16503.841    
    566000   1.0655723      291.96204      97.487684     -16586.873    
    567000   1.0781689      300.09762     -382.12244     -16613.503    
    568000   1.0701922      298.61121     -789.06818     -16554.387    
    569000   1.0855482      296.52508     -369.32561     -16526.674    
    570000   1.072536       298.42977     -682.1875      -16558.982    
    571000   1.0781135      292.96528      82.300707     -16642.818    
    572000   1.0698565      299.80848      262.92227     -16481.928    
    573000   1.0795724      295.25921     -155.44793     -16618.563    
    574000   1.0720782      301.04402     -127.55575     -16486.818    
    575000   1.0857786      297.31599      1163.2745     -16660.87     
    576000   1.0724204      297.24847     -368.94866     -16563.941    
    577000   1.0868113      292.31407      452.58541     -16542.827    
    578000   1.0842075      288.97096     -428.58671     -16603.488    
    579000   1.0783457      292.34292     -62.289009     -16542.966    
    580000   1.0867909      300.31788      649.78612     -16545.215    
    581000   1.0776582      298.44804     -496.39139     -16537.412    
    582000   1.0764198      290.4311       16.061504     -16554.932    
    583000   1.0857653      300.20265      702.46059     -16529.515    
    584000   1.0670374      292.36582     -286.38048     -16559.529    
    585000   1.0675043      309.05189     -278.91669     -16444.68     
    586000   1.0834613      296.09172      749.91256     -16575.793    
    587000   1.0741671      296.33512      106.12909     -16538.932    
    588000   1.0872805      295.84013      653.62535     -16603.902    
    589000   1.0739991      293.34659     -569.32232     -16591.333    
    590000   1.0889949      290.13428     -182.79548     -16722.916    
    591000   1.0728418      299.66233     -384.21011     -16562.423    
    592000   1.0759579      300.95701      53.301891     -16573.741    
    593000   1.0841623      300.71488     -154.44495     -16483.451    
    594000   1.0903026      294.86934     -150.80184     -16590.156    
    595000   1.091386       299.59743      1446.9275     -16466.585    
    596000   1.0795813      294.82305     -242.8076      -16575.466    
    597000   1.0912366      290.12033      415.23663     -16630.546    
    598000   1.0702248      311.11011     -981.14682     -16510.918    
    599000   1.0908419      304.13844      754.21137     -16494.844    
    600000   1.0683267      288.75616     -577.52455     -16484.39     
    601000   1.0845633      306.18593      811.28412     -16469.961    
    602000   1.072752       294.93937     -1023.3171     -16558.155    
    603000   1.0803323      298.6992      -24.697163     -16499.426    
    604000   1.0643127      297.41954     -1567.4646     -16557.804    
    605000   1.0832415      292.18335      280.88273     -16474.555    
    606000   1.0749332      298.34604     -484.21053     -16398.499    
    607000   1.0991657      296.35864      188.01505     -16608.021    
    608000   1.0742369      305.11944     -20.487424     -16420.27     
    609000   1.0648652      297.51337     -305.07881     -16509.25     
    610000   1.08423        292.6556      -351.21474     -16624.389    
    611000   1.0855052      294.66141     -250.76647     -16626.716    
    612000   1.0868569      294.98674      124.25467     -16528.521    
    613000   1.0849937      294.49192      58.498775     -16559.564    
    614000   1.0840609      298.40149     -254.79181     -16596.306    
    615000   1.0869112      294.63952      104.22364     -16585.345    
    616000   1.0815848      296.15287     -102.3957      -16563.947    
    617000   1.0750058      308.38161     -310.50534     -16507.816    
    618000   1.0810992      304.14923     -332.95611     -16471.107    
    619000   1.0811146      292.89641      707.96623     -16548.235    
    620000   1.0832125      293.49905      512.82071     -16637.482    
    621000   1.0866923      306.90115     -580.30224     -16513.046    
    622000   1.0819973      296.72794     -263.04403     -16555.393    
    623000   1.0813718      285.86754      126.07053     -16657.346    
    624000   1.077954       304.84041     -656.16065     -16445.974    
    625000   1.0765194      284.80131     -121.57086     -16525.258    
    626000   1.0888925      299.37127      1151.7751     -16462.569    
    627000   1.0812199      298.42422     -393.73313     -16505.777    
    628000   1.0859737      301.11876      57.660587     -16554.857    
    629000   1.0750596      303.27982      146.93676     -16472.34     
    630000   1.0791055      302.1466      -115.89058     -16582.275    
    631000   1.0762704      305.48985     -127.81234     -16512.971    
    632000   1.0762648      288.8512       324.03769     -16585.403    
    633000   1.0771928      288.33521      472.81738     -16583.073    
    634000   1.0854644      296.68187      374.43801     -16539.126    
    635000   1.0785365      300.47099     -21.763412     -16518.969    
    636000   1.0707741      292.36077     -966.67462     -16563.179    
    637000   1.0830291      299.78518     -189.70954     -16499.411    
    638000   1.0749385      304.72443     -652.626       -16415.142    
    639000   1.0809662      306.26663     -394.51397     -16436.993    
    640000   1.0780136      306.46258      90.930524     -16427.977    
    641000   1.0711276      313.15082     -20.007465     -16425.021    
    642000   1.0883338      299.01286      175.59622     -16625.131    
    643000   1.0679486      295.77539     -484.13199     -16540.301    
    644000   1.0742828      292.45738      389.58193     -16558.973    
    645000   1.063843       295.07057     -297.14311     -16524.201    
    646000   1.0820121      299.09978      720.67336     -16594.899    
    647000   1.0695795      292.01192     -615.37415     -16652.104    
    648000   1.079324       294.44176      389.1353      -16633.27     
    649000   1.0801488      309.03723     -562.07302     -16534.093    
    650000   1.0829543      296.07218     -333.43053     -16534.102    
    651000   1.079595       292.2858      -420.76258     -16538.359    
    652000   1.0913992      295.29896     -120.64069     -16604.482    
    653000   1.0725631      301.55114     -195.63501     -16502.45     
    654000   1.0738796      294.53128     -818.87147     -16569.697    
    655000   1.0802537      299.91472      784.94828     -16557.593    
    656000   1.0747618      297.76769     -266.38799     -16636.454    
    657000   1.0806467      289.51384     -447.74909     -16665.279    
    658000   1.075204       296.88682     -215.46947     -16553.806    
    659000   1.085041       299.57066     -41.637966     -16507.668    
    660000   1.0841595      297.52799     -162.29867     -16442.613    
    661000   1.0846528      294.51898      448.31895     -16586.343    
    662000   1.0770534      302.15612     -459.06078     -16468.775    
    663000   1.0713893      304.47688      174.55323     -16466.713    
    664000   1.076945       290.77078     -517.08072     -16578.778    
    665000   1.0765247      297.30888     -382.16455     -16613.906    
    666000   1.0829618      304.74619      820.22598     -16535.171    
    667000   1.0807816      296.47042     -413.3095      -16579.253    
    668000   1.0853353      290.88788      344.61871     -16648.406    
    669000   1.078535       299.06832     -59.971105     -16491.67     
    670000   1.0753612      302.83185     -62.771219     -16451.908    
    671000   1.081902       291.82236      773.85447     -16545.891    
    672000   1.0744382      300.89947     -583.76269     -16560.056    
    673000   1.06682        297.47317      71.171613     -16591.62     
    674000   1.0698641      292.74518      364.51211     -16586.535    
    675000   1.0643586      290.36228      373.90428     -16606.924    
    676000   1.0809203      298.08506      23.701982     -16562.06     
    677000   1.068663       293.47921     -392.76008     -16556.409    
    678000   1.0851139      305.89626      319.9269      -16412.959    
    679000   1.0778162      296.30659     -620.66624     -16509.519    
    680000   1.077782       301.20736     -108.35098     -16533.579    
    681000   1.0904252      298.91246     -21.291059     -16601.573    
    682000   1.071379       300.5881      -488.21066     -16500.549    
    683000   1.0747665      297.44651      570.212       -16572.135    
    684000   1.073116       304.04237      639.26512     -16573.301    
    685000   1.0672318      303.25138     -177.08246     -16563.869    
    686000   1.0760007      304.65262     -76.242838     -16581.682    
    687000   1.0753311      290.29714     -532.84358     -16623.747    
    688000   1.0801258      306.66008      63.672274     -16550.717    
    689000   1.0835317      303.52605      117.84789     -16462.493    
    690000   1.0832621      300.71593      291.41247     -16507.216    
    691000   1.0853614      290.55127     -38.984187     -16605.066    
    692000   1.0842909      298.42228     -569.4547      -16525.928    
    693000   1.069648       290.94183      103.27471     -16517.417    
    694000   1.0775177      294.36179     -595.96557     -16489.956    
    695000   1.0943317      289.35934     -0.75749567    -16573.751    
    696000   1.0790143      304.75248     -621.5152      -16474.509    
    697000   1.0757008      292.00899      78.888047     -16548.62     
    698000   1.0574854      292.36132     -589.17863     -16599.815    
    699000   1.082304       301.51062      1108.1076     -16508.263    
    700000   1.0506946      292.38972     -889.42785     -16496.766    
    701000   1.0737066      295.21015      69.208111     -16502.762    
    702000   1.0670145      304.25836     -276.06853     -16505.252    
    703000   1.0766165      289.97738     -104.29495     -16551.151    
    704000   1.0759159      299.61855      173.55344     -16521.217    
    705000   1.0713227      299.17766      37.593732     -16499.984    
    706000   1.0828598      291.19299      996.53347     -16635.113    
    707000   1.0671308      291.82995     -411.91026     -16464.694    
    708000   1.0694276      304.20312     -120.85565     -16543.867    
    709000   1.07334        302.07906     -171.88961     -16514.569    
    710000   1.0846242      300.12257      458.67776     -16526.442    
    711000   1.0734577      303.46198      241.19678     -16595.133    
    712000   1.0714396      290.51632     -942.4826      -16629.235    
    713000   1.0744798      297.27958      213.72423     -16488.981    
    714000   1.0615454      299.17351     -378.77715     -16538.207    
    715000   1.0779455      292.37203     -409.3073      -16665.995    
    716000   1.0872748      289.76378     -587.31096     -16647.369    
    717000   1.0780846      305.21003     -307.49503     -16478.533    
    718000   1.0777344      301.54785      390.03017     -16611.769    
    719000   1.0872697      294.00553      250.5933      -16641.032    
    720000   1.0666608      293.64222     -828.47008     -16649.263    
    721000   1.0781052      296.55494      3.9314306     -16569.924    
    722000   1.0826776      303.38285      1238.2346     -16560.117    
    723000   1.0857357      308.21499      751.43328     -16513.024    
    724000   1.0792469      300.19455     -382.40995     -16504.75     
    725000   1.0910178      294.61912      292.02356     -16521.851    
    726000   1.0784983      301.70634      32.5593       -16517.475    
    727000   1.0801511      299.77881      102.92816     -16518.882    
    728000   1.0700002      296.05004     -247.17035     -16591.051    
    729000   1.0823344      294.85997      197.46237     -16481.771    
    730000   1.0861428      303.73109      83.265466     -16546.142    
    731000   1.0842432      295.96463     -144.78451     -16616.999    
    732000   1.0836006      299.16938      84.677708     -16550.069    
    733000   1.0776286      295.2776      -180.4184      -16508.564    
    734000   1.0898589      297.70549     -368.07378     -16572.122    
    735000   1.0859297      294.69761      115.76637     -16541.111    
    736000   1.0795362      298.85502     -29.034059     -16540.248    
    737000   1.0898745      297.13112      605.35549     -16514.182    
    738000   1.0880745      292.93254     -87.559198     -16569.334    
    739000   1.076458       302.00808      258.36787     -16497.286    
    740000   1.0906098      298.16686     -124.86817     -16534.69     
    741000   1.0734397      308.92992      82.106288     -16465.1      
    742000   1.0752912      304.33276      613.84461     -16489.648    
    743000   1.0747254      297.04857      94.283705     -16537.945    
    744000   1.0744035      308.67958     -81.44692      -16464.594    
    745000   1.0694115      297.47211     -407.94035     -16525.496    
    746000   1.0939442      296.03999      422.18286     -16534.841    
    747000   1.0836308      293.57993      425.34837     -16614.825    
    748000   1.0837215      303.50902     -11.195896     -16535.776    
    749000   1.0761146      294.16803      110.18838     -16589.217    
    750000   1.0628097      293.66173     -111.85595     -16637.418    
    751000   1.0673536      298.10153     -4.7482638     -16565.202    
    752000   1.0823009      303.29893      657.99173     -16527.455    
    753000   1.080078       300.05979      19.724172     -16593.165    
    754000   1.0724679      301.4534      -228.0153      -16573.527    
    755000   1.086594       296.93453      631.25998     -16538.157    
    756000   1.0846031      301.27152      169.99945     -16469.575    
    757000   1.0808562      291.72663     -294.29236     -16622.179    
    758000   1.0730063      297.13195     -341.47808     -16454.861    
    759000   1.0781607      295.06004     -196.23077     -16509.428    
    760000   1.0617513      300.66283     -920.50542     -16554.458    
    761000   1.0796467      296.20355      165.71016     -16525.032    
    762000   1.0640745      300.2329      -411.31533     -16462.684    
    763000   1.0720793      303.98985      259.85605     -16470.502    
    764000   1.0913073      307.26999      1350.8643     -16500.894    
    765000   1.0680133      300.2654      -687.11947     -16484.934    
    766000   1.0891447      279.83089      471.49662     -16652.914    
    767000   1.0701185      294.92002     -41.414087     -16526.575    
    768000   1.0847448      301.46593      802.68189     -16605.046    
    769000   1.0660167      299.00306     -503.39637     -16516.504    
    770000   1.0770671      292.15189     -107.52917     -16546.499    
    771000   1.0616035      297.10462     -43.863027     -16580.552    
    772000   1.0762439      302.04876      581.0027      -16483.445    
    773000   1.0662407      305.38166     -112.49897     -16454.159    
    774000   1.0738648      296.00762      27.433586     -16481.276    
    775000   1.0742323      289.20697     -760.50252     -16577.184    
    776000   1.0877371      300.85602      1243.5843     -16503.278    
    777000   1.0661095      288.56274     -572.75331     -16516.454    
    778000   1.0751854      297.11701     -85.139813     -16528.777    
    779000   1.071854       298.65445     -273.90115     -16539.992    
    780000   1.0798316      291.85716      788.84589     -16625.813    
    781000   1.0749073      300.17443     -15.08933      -16520.908    
    782000   1.0724552      292.42522     -1087.5055     -16638.456    
    783000   1.0842638      298.88112      1323.5219     -16540.42     
    784000   1.076645       293.27466      302.14981     -16469.769    
    785000   1.0872681      304.50912     -254.58757     -16582.656    
    786000   1.0835438      299.38924     -249.46263     -16489.128    
    787000   1.0802985      298.30958      117.58234     -16621.663    
    788000   1.0757188      289.28324      28.958413     -16564.918    
    789000   1.0797152      299.74668      231.76152     -16607.225    
    790000   1.0726761      297.99667     -21.8734       -16566.707    
    791000   1.0739607      303.73167      37.171506     -16502.545    
    792000   1.0777113      292.69691      245.21496     -16567.209    
    793000   1.0734612      291.10438      201.12005     -16563.18     
    794000   1.0773026      304.71637     -235.91979     -16507.493    
    795000   1.0839964      304.04575     -5.1937793     -16555.671    
    796000   1.0866009      305.34821      839.7411      -16523.555    
    797000   1.060749       298.14633     -451.20316     -16432.129    
    798000   1.0748814      305.21626      425.18241     -16579.535    
    799000   1.0683883      300.62004     -65.872696     -16415.49     
    800000   1.0806665      301.01766     -117.67635     -16521.684    
    801000   1.0821975      304.47721      1.8537276     -16536.726    
    802000   1.0896819      298.5553       143.82574     -16505.114    
    803000   1.0847205      307.1097       378.70218     -16463.004    
    804000   1.0970364      296.8866       901.16302     -16540.766    
    805000   1.0895277      300.66917      61.289111     -16517.05     
    806000   1.0877204      299.80361     -597.18639     -16534.557    
    807000   1.0863985      288.36416     -912.77116     -16589.09     
    808000   1.0817583      292.88725     -517.29742     -16601.591    
    809000   1.0720588      286.32385     -167.67256     -16599.697    
    810000   1.083028       300.73968      215.43016     -16529.458    
    811000   1.0776096      306.97382     -241.49169     -16379.548    
    812000   1.0879378      292.54535      105.5052      -16626.087    
    813000   1.0670991      296.05316     -735.75671     -16522.772    
    814000   1.0852296      303.45468      844.17588     -16496.998    
    815000   1.0644673      298.55618     -447.52043     -16518.746    
    816000   1.0828802      302.03684      67.122343     -16543.611    
    817000   1.0743642      306.08614     -650.35072     -16539.448    
    818000   1.0851706      296.49247      525.07743     -16545.999    
    819000   1.0790122      299.16099      155.73784     -16534.248    
    820000   1.0771109      287.19909     -1149.2587     -16635.541    
    821000   1.08422        301.46576     -117.90544     -16479.07     
    822000   1.0877387      296.74875     -398.25519     -16516.164    
    823000   1.0895914      298.71281      580.68937     -16549.596    
    824000   1.0725071      303.06123      705.49263     -16511.969    
    825000   1.0725447      299.50633      351.23032     -16475.585    
    826000   1.0816094      295.64026      38.996952     -16621.462    
    827000   1.0754778      301.62293     -56.688533     -16462.351    
    828000   1.0814997      300.84675     -891.49936     -16544.425    
    829000   1.0873242      309.85908     -427.71232     -16541.173    
    830000   1.0856794      296.71669      212.29237     -16532.454    
    831000   1.0736686      304.37121     -415.51672     -16457.598    
    832000   1.0857025      301.00482      193.17249     -16541.629    
    833000   1.0887672      299.0184       367.61395     -16482.645    
    834000   1.0849936      279.46125     -474.70127     -16648.113    
    835000   1.0818283      299.05712     -186.09676     -16619.289    
    836000   1.0817724      295.87386     -422.6419      -16576.079    
    837000   1.0815701      295.97423     -370.92888     -16553.812    
    838000   1.0912602      296.1669      -602.30561     -16574.148    
    839000   1.0667469      288.85209     -924.92769     -16559.591    
    840000   1.0881388      294.60054      442.81255     -16554.268    
    841000   1.0665375      291.58801     -176.77493     -16577.141    
    842000   1.0802303      306.67463      592.7275      -16361.774    
    843000   1.069516       298.31167     -714.82519     -16495.634    
    844000   1.0775348      291.15683      298.83169     -16485.524    
    845000   1.0730165      297.93941      161.93016     -16530.897    
    846000   1.0709425      300.97051     -776.28774     -16449.842    
    847000   1.0753767      295.63936     -737.16117     -16511.888    
    848000   1.0817268      301.20322      254.20607     -16592.211    
    849000   1.0654287      294.64574     -199.25734     -16538.563    
    850000   1.0830333      300.76619      564.19197     -16559.459    
    851000   1.0825267      292.22592     -162.61892     -16714.382    
    852000   1.0682447      306.3743       55.781224     -16453.943    
    853000   1.0777541      302.47792     -259.99039     -16519.151    
    854000   1.0759415      294.27078     -181.61056     -16590.433    
    855000   1.0901896      291.53693      213.48944     -16674.495    
    856000   1.0815493      294.19838      1013.3496     -16514.439    
    857000   1.070445       303.70111      250.67532     -16467.846    
    858000   1.0687899      296.27245     -154.00138     -16572.026    
    859000   1.0656922      305.76445      451.46044     -16433.756    
    860000   1.0694514      304.1149      -419.75741     -16553.089    
    861000   1.0643349      306.00076      127.3908      -16422.089    
    862000   1.070461       299.48469      172.6437      -16518.319    
    863000   1.0775645      295.17053     -120.46139     -16622.201    
    864000   1.0729204      298.38804      532.83754     -16560.364    
    865000   1.0822686      299.74125     -27.093065     -16611.09     
    866000   1.0756014      295.44206      590.401       -16533.688    
    867000   1.0836271      301.93776     -71.20686      -16528.236    
    868000   1.0643693      294.26231     -388.48337     -16534.697    
    869000   1.0753802      305.51922     -16.167379     -16542.535    
    870000   1.077769       305.42017     -193.06964     -16497.818    
    871000   1.0840984      300.1722       571.13564     -16579.459    
    872000   1.0825934      300.11405      700.25539     -16508.719    
    873000   1.0850597      299.85919      435.21579     -16555.331    
    874000   1.081166       293.15746     -131.67667     -16577.533    
    875000   1.0767259      295.29598     -642.22219     -16623.536    
    876000   1.0785088      288.12662     -884.10268     -16578.037    
    877000   1.0794349      301.41712     -323.18064     -16525.365    
    878000   1.0738488      302.80942      112.19987     -16477.525    
    879000   1.0873225      304.56796      382.12811     -16513.571    
    880000   1.0802766      292.84689     -338.1685      -16592.594    
    881000   1.0659389      300.56128     -535.8452      -16478.103    
    882000   1.0810405      291.5481       110.68754     -16564.909    
    883000   1.0700443      300.17155     -497.63605     -16494.026    
    884000   1.0803286      298.94954      749.9899      -16551.46     
    885000   1.0633391      300.20644     -442.73594     -16529.594    
    886000   1.0830913      297.20648      268.53799     -16558.767    
    887000   1.0757474      296.38728      377.6246      -16488.842    
    888000   1.0721579      298.99879     -26.113962     -16483.798    
    889000   1.0818758      297.3822       1233.7936     -16527.654    
    890000   1.070694       298.94984     -46.466219     -16469.707    
    891000   1.0749971      295.79365     -43.28269      -16511.649    
    892000   1.0729379      300.11504     -11.429432     -16505.593    
    893000   1.0815665      296.04459     -113.39798     -16570.265    
    894000   1.073224       301.12475      149.01935     -16433.444    
    895000   1.078265       291.83914     -627.63225     -16581.798    
    896000   1.0771641      292.7723       29.472174     -16572.341    
    897000   1.0678207      304.68492      372.41352     -16506.854    
    898000   1.074369       290.63898     -442.57902     -16526.625    
    899000   1.074535       295.20021     -702.27459     -16577.834    
    900000   1.0815554      299.69337      771.80465     -16507.001    
    901000   1.0654049      291.42907      146.66659     -16552.58     
    902000   1.0835777      290.21486      168.04802     -16548.758    
    903000   1.085992       300.77434      217.67937     -16561.916    
    904000   1.0669898      302.61461      8.6768411     -16498.428    
    905000   1.0976887      298.50519      1558.7        -16556.513    
    906000   1.0718308      303.94446     -731.49989     -16476.756    
    907000   1.0865061      297.57353      683.39798     -16577.565    
    908000   1.0816761      293.84612     -361.48995     -16574.567    
    909000   1.0779236      309.72965      174.86133     -16427.32     
    910000   1.068261       293.66022     -126.81254     -16557.306    
    911000   1.0809698      297.63504     -276.31296     -16613.857    
    912000   1.0755449      304.61689     -819.66458     -16556.979    
    913000   1.0732594      298.37986     -90.503557     -16537.018    
    914000   1.0763492      305.19046     -197.03083     -16463.963    
    915000   1.083665       290.75464      110.03503     -16636.188    
    916000   1.0823974      290.82558     -186.83903     -16587.156    
    917000   1.0735626      307.4275       415.32895     -16373.903    
    918000   1.0869948      299.04412      245.70187     -16567.861    
    919000   1.0794568      296.66889      139.13877     -16506.122    
    920000   1.079814       297.81028     -198.08213     -16558.493    
    921000   1.0796022      301.95929     -365.85787     -16496.931    
    922000   1.081755       301.53465     -566.77494     -16611.109    
    923000   1.08161        296.66843     -269.92388     -16614.423    
    924000   1.0717208      296.05187     -186.55882     -16525.6      
    925000   1.086983       297.7362       685.58006     -16642.211    
    926000   1.081265       295.71686      585.40545     -16559.958    
    927000   1.071704       309.37607      258.70978     -16462.443    
    928000   1.0861019      296.91146      826.84622     -16549.232    
    929000   1.0875742      297.72519      190.3191      -16572.378    
    930000   1.0728194      303.54093     -629.59875     -16462.811    
    931000   1.075844       292.67832      1254.9734     -16610.908    
    932000   1.0668498      303.33699     -582.67817     -16502.773    
    933000   1.0807505      303.27211      711.49332     -16596.211    
    934000   1.076424       291.89422      177.70839     -16592.948    
    935000   1.0819642      289.13754     -118.44548     -16496.951    
    936000   1.0810218      300.93773      99.506415     -16606.7      
    937000   1.0794722      302.61945     -27.589899     -16513.953    
    938000   1.0779854      297.67192      132.77261     -16554.674    
    939000   1.0768679      302.79415      249.24984     -16562.024    
    940000   1.085988       292.15167      343.14852     -16594.847    
    941000   1.0742042      295.28332     -339.92119     -16611.856    
    942000   1.0741848      292.55508     -159.54521     -16611.207    
    943000   1.0797095      300.54268      108.81049     -16588.703    
    944000   1.0747104      291.84707     -137.87966     -16601.893    
    945000   1.0883221      296.32688      334.41665     -16536.591    
    946000   1.0759223      296.12866     -511.3002      -16569.163    
    947000   1.0778985      298.04555     -425.44569     -16584.022    
    948000   1.0753041      305.12592     -681.27267     -16403.429    
    949000   1.0808261      297.64095      210.13858     -16492.842    
    950000   1.0720111      295.19965     -604.01116     -16564.77     
    951000   1.0783498      302.69224      218.49237     -16484.959    
    952000   1.0770709      290.85938      267.65002     -16493.255    
    953000   1.0691831      296.08263      224.66419     -16542.061    
    954000   1.0678471      304.73267     -79.212516     -16425.285    
    955000   1.0719311      296.93805      542.72235     -16532.872    
    956000   1.0594717      301.80199      26.240909     -16507.029    
    957000   1.070927       298.35395      944.91939     -16584.272    
    958000   1.0688865      301.08481      436.8061      -16496.635    
    959000   1.0782359      285.3459       279.75032     -16636.223    
    960000   1.0756423      307.89925     -270.26902     -16532.204    
    961000   1.0765038      295.64932     -268.88187     -16492.026    
    962000   1.0740825      296.79222     -307.19704     -16502.382    
    963000   1.0736171      299.02562     -870.44396     -16520.929    
    964000   1.0907894      301.87478      564.52629     -16498.515    
    965000   1.0852006      299.28427      218.46089     -16548.976    
    966000   1.0871155      299.32052      460.21633     -16527.7      
    967000   1.0699865      291.15611     -61.767976     -16575.942    
    968000   1.0760112      297.90555      513.10418     -16491.787    
    969000   1.0763433      294.64535      281.22681     -16576.939    
    970000   1.0708135      301.54227      248.95796     -16562.521    
    971000   1.067889       303.08934      416.66157     -16591.696    
    972000   1.0721916      298.34614      342.00595     -16566.612    
    973000   1.0742719      304.34755     -485.13851     -16595.414    
    974000   1.0768368      294.01379     -259.49418     -16654.578    
    975000   1.0847488      294.22335      60.358639     -16608.479    
    976000   1.0873176      301.81634     -102.73675     -16558.467    
    977000   1.0782244      292.26912      212.45159     -16538.934    
    978000   1.0876185      300.01493     -372.03455     -16637.129    
    979000   1.0815721      306.52679     -176.05097     -16526.569    
    980000   1.084973       293.17897     -377.69134     -16628.362    
    981000   1.0866295      302.26764     -1105.7157     -16606.562    
    982000   1.0867179      285.48917     -137.26403     -16633.206    
    983000   1.0780126      282.24635      216.28635     -16711.091    
    984000   1.0783391      303.18991      218.9916      -16537.205    
    985000   1.0818493      297.4142       138.46226     -16546.387    
    986000   1.0654218      296.68434     -843.02584     -16453.797    
    987000   1.0965469      299.41297      328.95092     -16616.894    
    988000   1.0777136      303.42372     -131.67944     -16559.843    
    989000   1.0852126      297.03686      138.19681     -16507.43     
    990000   1.06633        291.93649     -626.91614     -16645.604    
    991000   1.0807833      292.23567      952.58885     -16575.344    
    992000   1.0750224      287.3024       18.00409      -16550.787    
    993000   1.0830806      293.35323     -107.10534     -16517.05     
    994000   1.0881367      297.84984     -428.13907     -16522.863    
    995000   1.06637        305.09        -844.42621     -16500.398    
    996000   1.0743599      299.86288      460.34906     -16454.086    
    997000   1.0684048      302.17829      452.82516     -16517.949    
    998000   1.0891613      296.6529       213.9482      -16519.335    
    999000   1.0910441      297.31894     -65.895113     -16619.423    
   1000000   1.0888554      300.25946     -595.25085     -16564.804    
   1001000   1.0922929      297.98522      331.4485      -16596.874    
   1002000   1.0861075      293.54473      249.43954     -16557.284    
   1003000   1.0789438      298.17058     -669.53094     -16623.885    
   1004000   1.0771846      305.58108      219.41374     -16532.514    
   1005000   1.089145       296.03476      396.32435     -16731.196    
   1006000   1.0712312      306.97587     -223.30859     -16492.977    
   1007000   1.0901235      291.51212      515.98065     -16650.395    
   1008000   1.0605613      300.21271     -645.73733     -16454.472    
   1009000   1.0795853      301.66161      474.94099     -16542.938    
   1010000   1.0688809      295.01497     -548.74285     -16597.313    
   1011000   1.0806089      294.96411      92.34525      -16470.884    
   1012000   1.0738296      295.79901      53.759488     -16542.54     
   1013000   1.0751083      298.35421     -304.64943     -16555.16     
   1014000   1.0713597      302.16281      247.30417     -16485.857    
   1015000   1.0732166      292.96627     -124.76502     -16557.559    
   1016000   1.0738283      286.18553     -414.89094     -16637.887    
   1017000   1.0871174      290.53928      341.39246     -16571.884    
   1018000   1.0760339      295.26088     -195.25664     -16496.721    
   1019000   1.0795412      298.15464     -521.896       -16527.62     
   1020000   1.0782137      304.97457      137.48741     -16453.785    
   1021000   1.077619       296.7352       76.95993      -16637.885    
   1022000   1.0748314      292.37867      280.52028     -16606.279    
   1023000   1.0712971      300.16645     -363.89711     -16610.958    
   1024000   1.0803019      292.44129      53.307051     -16593.915    
   1025000   1.0767087      299.12215      9.3551418     -16511.092    
   1026000   1.0740954      295.45888     -367.52        -16555.966    
   1027000   1.0845721      294.95024      34.437113     -16525.136    
   1028000   1.0649936      293.94132     -13.810765     -16489.277    
   1029000   1.0741152      301.00023      16.721778     -16613.837    
   1030000   1.0851038      303.00783      44.099352     -16534.362    
   1031000   1.085135       290.62965      494.23949     -16562.029    
   1032000   1.0926311      291.91304     -352.57696     -16577.852    
   1033000   1.0909056      302.01295     -118.21847     -16579.377    
   1034000   1.079726       296.80833      805.14253     -16587.54     
   1035000   1.082449       302.98706     -739.39974     -16539.145    
   1036000   1.081258       297.74661     -115.97649     -16532.125    
   1037000   1.0777346      295.09389      82.10258      -16521.548    
   1038000   1.0786609      292.90784     -188.38757     -16648.617    
   1039000   1.0661592      291.16985     -370.60685     -16561.112    
   1040000   1.0720679      299.42278     -236.02104     -16479.072    
   1041000   1.0795821      302.57976      400.36055     -16562.655    
   1042000   1.073185       305.37297     -589.96096     -16537.67     
   1043000   1.0844958      301.66017     -80.19125      -16419.727    
   1044000   1.0738025      303.91636      474.10275     -16543.352    
   1045000   1.0804284      300.2044       66.501357     -16642.014    
   1046000   1.0856872      289.78343     -101.96829     -16647.232    
   1047000   1.0748767      290.66206     -925.95843     -16591.695    
   1048000   1.0906858      297.62642      258.28225     -16532.257    
   1049000   1.0876417      299.91953      71.71671      -16503.235    
   1050000   1.0780771      298.80068     -774.29773     -16473.21     
   1051000   1.0852629      295.9762      -221.32818     -16563.502    
   1052000   1.0922649      286.11471      248.65238     -16672.527    
   1053000   1.0895146      294.62826     -180.5241      -16614.602    
   1054000   1.0654572      292.75421     -785.38322     -16545.442    
   1055000   1.0730286      303.25427     -55.030616     -16397.946    
   1056000   1.0893714      299.22907      431.2855      -16532.436    
   1057000   1.0745376      296.87977     -495.53146     -16578.236    
   1058000   1.0865767      295.77309      723.98108     -16562.999    
   1059000   1.0785761      296.96089     -172.46344     -16480.833    
   1060000   1.0826043      297.78676     -105.95225     -16543.928    
   1061000   1.0835105      301.47766     -363.78337     -16498.796    
   1062000   1.0869262      299.48794      486.05257     -16554.441    
   1063000   1.0778564      302.7361      -596.00693     -16502.517    
   1064000   1.1026484      292.49937      437.55314     -16609.9      
   1065000   1.0709867      307.35264     -66.39185      -16448.383    
   1066000   1.0840252      297.52156      435.59717     -16522.248    
   1067000   1.0790922      299.3749       217.56117     -16564.24     
   1068000   1.0763189      286.72285     -345.6881      -16566.852    
   1069000   1.0857252      285.00745      243.05312     -16603.596    
   1070000   1.0811673      293.51252     -142.94321     -16544.358    
   1071000   1.0822577      287.12035     -34.461168     -16555.711    
   1072000   1.0757623      303.30029     -152.69565     -16481.797    
   1073000   1.0864582      293.04934     -79.607064     -16573.63     
   1074000   1.0735907      300.05472     -125.20103     -16501.955    
   1075000   1.0842062      301.78977      695.94483     -16604.002    
   1076000   1.0793429      295.55179      644.63364     -16556.429    
   1077000   1.0768007      301.69014     -137.81285     -16528.161    
   1078000   1.0846304      306.65202      956.24146     -16406.237    
   1079000   1.0800208      300.83419      54.194556     -16443.266    
   1080000   1.0802553      296.74591      31.512543     -16487.505    
   1081000   1.0911606      289.09548      719.1135      -16532.326    
   1082000   1.0878174      295.42278      240.29868     -16530.783    
   1083000   1.0769136      301.85634     -314.96622     -16414.325    
   1084000   1.1030426      289.65113      563.094       -16588.522    
   1085000   1.0661348      300.68437     -650.83002     -16488.92     
   1086000   1.0926705      291.6013       736.04103     -16662.844    
   1087000   1.0773659      296.90592      356.50334     -16455.114    
   1088000   1.0851269      299.92609      519.65138     -16627.313    
   1089000   1.0863074      296.92066     -262.41782     -16534.253    
   1090000   1.0760073      292.9205      -607.04373     -16509.324    
   1091000   1.07688        301.2804      -1104.6859     -16540.343    
   1092000   1.0726724      297.54356      14.647934     -16578.029    
   1093000   1.0823328      295.32263      872.00375     -16635.764    
   1094000   1.07234        295.40883     -284.97985     -16535.499    
   1095000   1.0696536      299.55559     -274.89237     -16537.74     
   1096000   1.065818       293.50902     -197.19378     -16572.604    
   1097000   1.0799449      308.8262       995.99356     -16504.213    
   1098000   1.0760603      303.06781      51.006876     -16475.355    
   1099000   1.0900527      297.0226       524.10639     -16528.173    
   1100000   1.0841555      299.16363     -126.85177     -16437.636    
   1101000   1.0804064      288.69982     -311.87772     -16587.445    
   1102000   1.0756422      303.33138      296.70639     -16521.376    
   1103000   1.0696779      302.6617      -288.49807     -16491.958    
   1104000   1.075588       293.28055      205.80328     -16615.543    
   1105000   1.0687482      300.0808      -751.79253     -16530.82     
   1106000   1.0893769      298.36507      1075.3081     -16536.3      
   1107000   1.0904752      297.51843      352.73365     -16598.33     
   1108000   1.0812268      301.34296      18.372536     -16453.561    
   1109000   1.0845506      299.36288      705.12243     -16563.116    
   1110000   1.0879424      292.42228      225.16292     -16547.778    
   1111000   1.0862326      296.60826      472.26703     -16553.618    
   1112000   1.0783763      293.20351      108.83549     -16541.613    
   1113000   1.0848073      296.42388      262.43931     -16526.94     
   1114000   1.0842378      295.81177     -194.16713     -16528.89     
   1115000   1.0786517      294.79411     -580.89693     -16555.186    
   1116000   1.0765221      297.9829      -209.12483     -16554.828    
   1117000   1.0895558      300.17872      633.27349     -16570.737    
   1118000   1.0935801      298.174        1120.5455     -16582.396    
   1119000   1.0740813      290.21325     -408.2785      -16581.445    
   1120000   1.0895797      298.89427     -178.38705     -16576.1      
   1121000   1.0726884      303.78143     -198.86817     -16494.618    
   1122000   1.089654       303.06657     -174.38871     -16546.096    
   1123000   1.0800475      296.52804     -91.228728     -16588.188    
   1124000   1.0791178      298.02668     -650.58905     -16550.03     
   1125000   1.0803309      292.74417      780.94778     -16580.647    
   1126000   1.0955342      300.93881      522.99355     -16595.304    
   1127000   1.082705       299.16048     -551.2381      -16611.139    
   1128000   1.0775525      312.13906      51.758787     -16385.536    
   1129000   1.086262       295.04975      724.75047     -16529.861    
   1130000   1.0881705      292.58891      41.700263     -16568.661    
   1131000   1.0808387      304.43731      225.728       -16455.07     
   1132000   1.0868899      293.46299      167.65087     -16583.926    
   1133000   1.0678766      296.47979     -450.6182      -16575.134    
   1134000   1.0744744      289.16388     -160.39775     -16625.545    
   1135000   1.0760283      303.97241     -615.57015     -16531.209    
   1136000   1.0775866      300.56538     -459.08276     -16619.42     
   1137000   1.0973021      305.27154      933.66633     -16486.376    
   1138000   1.0805124      287.11548     -318.89017     -16604.021    
   1139000   1.0922904      294.09118     -463.5256      -16512.898    
   1140000   1.0720711      292.53861     -1135.2826     -16543.669    
   1141000   1.0879402      306.58401     -510.35812     -16486.494    
   1142000   1.0820214      299.03094     -807.00934     -16577.266    
   1143000   1.0853502      292.34631     -244.896       -16641.151    
   1144000   1.0842352      285.91294     -932.48006     -16730.079    
   1145000   1.0729817      302.77372     -693.21367     -16565.031    
   1146000   1.0901759      297.12869      1340.3589     -16553.601    
   1147000   1.0803384      294.62434      489.5963      -16550.397    
   1148000   1.0920833      304.36475      544.6974      -16424.099    
   1149000   1.0847413      301.69965      571.23622     -16430.342    
   1150000   1.0939595      285.45358      128.84525     -16565.813    
   1151000   1.086223       305.83592     -116.05097     -16475.813    
   1152000   1.0717031      292.46216     -251.92648     -16654.617    
   1153000   1.0649797      302.26051     -1194.6517     -16556.697    
   1154000   1.074533       295.88673      284.4394      -16486.868    
   1155000   1.083143       302.58299     -102.78964     -16503.851    
   1156000   1.0838758      300.45684      356.04262     -16541.032    
   1157000   1.0739753      302.18908      159.2352      -16486.773    
   1158000   1.0853763      300.39527     -244.13894     -16585.521    
   1159000   1.0791578      301.30733      13.275528     -16600.144    
   1160000   1.0800554      292.25771     -704.19325     -16544.344    
   1161000   1.0764905      294.87022     -687.52316     -16548.663    
   1162000   1.0759648      301.15129      87.264933     -16444.713    
   1163000   1.0759344      298.32214     -710.20152     -16569.187    
   1164000   1.0772384      298.47935     -666.02364     -16516.775    
   1165000   1.0802347      296.79689      493.17914     -16623.758    
   1166000   1.079571       305.18602      597.55463     -16545.405    
   1167000   1.0752766      298.30345     -197.74213     -16501.796    
   1168000   1.0900973      298.95228      283.90407     -16584.904    
   1169000   1.0742012      290.87473      176.67717     -16545.872    
   1170000   1.0653605      284.99388     -385.03194     -16595.326    
   1171000   1.0700687      298.75889      9.3581489     -16601.663    
   1172000   1.0716281      309.39973      803.80269     -16520.912    
   1173000   1.078223       301.49066     -158.38384     -16441.893    
   1174000   1.0685845      294.23274     -929.41314     -16596.381    
   1175000   1.0927254      308.43927      746.2021      -16513.767    
   1176000   1.0711493      293.74626     -570.75294     -16434.507    
   1177000   1.0742778      297.11042      466.88334     -16507.227    
   1178000   1.0778203      302.51752      753.76853     -16510.135    
   1179000   1.089152       294.70413      101.63012     -16604.345    
   1180000   1.077658       299.15429      319.2821      -16447.268    
   1181000   1.0806539      299.52249      275.37347     -16487.534    
   1182000   1.0766333      303.60888      291.87642     -16455.174    
   1183000   1.0767097      295.35742     -295.199       -16544.334    
   1184000   1.0662402      298.82886     -735.13905     -16541.035    
   1185000   1.0872398      289.74567      661.93429     -16758.481    
   1186000   1.0633607      293.23389     -917.40639     -16579.561    
   1187000   1.0808185      302.39041      616.542       -16571.624    
   1188000   1.080845       296.09505     -634.03338     -16674.325    
   1189000   1.0783293      308.36194      361.59973     -16490.403    
   1190000   1.093283       295.67001      1255.9323     -16561.718    
   1191000   1.0638614      284.9969      -93.442928     -16605.333    
   1192000   1.0748032      297.11643      671.20806     -16563.037    
   1193000   1.0630157      291.24637     -968.27126     -16657.754    
   1194000   1.0739018      307.89055     -931.77768     -16490.74     
   1195000   1.0625219      288.0079      -227.62755     -16545.909    
   1196000   1.070798       298.33979     -907.84987     -16526.493    
   1197000   1.0882264      293.56356      689.27069     -16520.01     
   1198000   1.0873205      299.67185     -549.42719     -16560.805    
   1199000   1.0756719      298.96497      307.61124     -16499.812    
   1200000   1.0933489      310.28162      549.55858     -16528.373    
   1201000   1.0709262      299.50327     -623.01251     -16597.541    
   1202000   1.0801248      302.56135      271.72379     -16505.761    
   1203000   1.0820552      291.91409      826.98831     -16637.584    
   1204000   1.0750323      295.45119      38.590574     -16622.699    
   1205000   1.0751265      303.40054      283.8742      -16487.079    
   1206000   1.0792021      291.99642     -75.651957     -16620.211    
   1207000   1.0687613      299.43862     -713.17106     -16552.71     
   1208000   1.0783732      294.01279     -5.0105703     -16503.674    
   1209000   1.0873693      288.83979      964.69832     -16547.15     
   1210000   1.0828184      296.45823     -436.40484     -16552.017    
   1211000   1.0899931      296.93534      67.322476     -16587.697    
   1212000   1.0724648      303.32972     -577.15483     -16448.025    
   1213000   1.0825237      292.24562     -134.61948     -16536.046    
   1214000   1.0899406      301.21355      95.965808     -16603.258    
   1215000   1.0866446      293.03316      13.166132     -16586.761    
   1216000   1.0708126      315.5809       357.66721     -16351.366    
   1217000   1.0786954      301.7218       79.989748     -16562.637    
   1218000   1.0868811      293.09475      88.533778     -16670.55     
   1219000   1.0765055      296.08745     -205.24628     -16638.001    
   1220000   1.0760874      286.1614      -526.04734     -16650.505    
   1221000   1.0717696      297.9527       85.915538     -16565.211    
   1222000   1.0728433      294.53129     -133.59424     -16517.802    
   1223000   1.0782942      294.24758      526.66194     -16618.31     
   1224000   1.0858112      288.76033      766.01933     -16620.888    
   1225000   1.0755011      303.91036      488.56881     -16529.367    
   1226000   1.078344       292.03606      52.656855     -16687.166    
   1227000   1.0733946      299.63932      170.45961     -16503.539    
   1228000   1.0787271      304.92426     -551.16127     -16490.696    
   1229000   1.0769376      292.82522      664.45911     -16570.542    
   1230000   1.0621127      295.81259      158.75056     -16428.087    
   1231000   1.0688087      296.77875      244.83942     -16532.711    
   1232000   1.0708407      291.1367       851.28694     -16619.747    
   1233000   1.065198       294.71972     -1203.0719     -16498.029    
   1234000   1.0740723      290.42642      138.80235     -16600.901    
   1235000   1.0774197      299.80821      189.17862     -16588.262    
   1236000   1.0733937      292.09696     -567.75185     -16601.041    
   1237000   1.0812359      299.61824     -812.41355     -16616.392    
   1238000   1.0743391      292.75223     -234.97842     -16588.667    
   1239000   1.0809075      296.04002      767.66207     -16459.577    
   1240000   1.0811024      304.98333      31.066213     -16613.711    
   1241000   1.076855       296.88385     -116.54259     -16449.732    
   1242000   1.0826489      306.32073     -38.875744     -16513.2      
   1243000   1.080066       296.05321     -31.866288     -16579.176    
   1244000   1.061124       300.37025     -325.45052     -16504.936    
   1245000   1.0816266      292.26874      601.29673     -16561.175    
   1246000   1.0796907      297.65192     -735.73645     -16598.551    
   1247000   1.0751342      292.0918      -69.080531     -16462.107    
   1248000   1.0769131      298.75735     -715.85553     -16529.844    
   1249000   1.0892391      300.19416     -115.92075     -16610.093    
   1250000   1.0724792      291.82453     -207.97804     -16599.358    
   1251000   1.0825808      295.93542      385.3406      -16672.71     
   1252000   1.0683465      296.75873     -409.91884     -16504.453    
   1253000   1.0868831      295.11183      909.43255     -16565.304    
   1254000   1.0664068      300.3497      -409.18539     -16478.818    
   1255000   1.079142       287.48591      330.97201     -16602.742    
   1256000   1.0802693      295.61172      139.80805     -16518.333    
   1257000   1.0890145      296.93855      235.37256     -16530.938    
   1258000   1.0870406      292.44501     -458.58558     -16527.176    
   1259000   1.0808215      310.07224     -330.83879     -16522.399    
   1260000   1.0785793      296.41916      57.524091     -16563.247    
   1261000   1.0836447      299.58226      1136.7332     -16507.273    
   1262000   1.0764761      295.08934      277.22415     -16596.599    
   1263000   1.0827052      293.14019     -229.84916     -16506.84     
   1264000   1.0768274      298.93922     -916.93229     -16512.558    
   1265000   1.0758949      301.34121      188.50544     -16579.756    
   1266000   1.0778667      305.39084      186.81891     -16446.417    
   1267000   1.0757142      300.76922     -618.3833      -16575.27     
   1268000   1.0806069      301.14776     -308.13161     -16513.306    
   1269000   1.0836953      300.33626     -0.70364504    -16560.697    
   1270000   1.076162       302.77727      381.69719     -16486.701    
   1271000   1.0742237      289.82612      808.10258     -16509.07     
   1272000   1.0801326      297.04849      166.03094     -16540.211    
   1273000   1.0767024      298.07354     -259.52876     -16571.538    
   1274000   1.0796772      295.38212      289.6272      -16601.813    
   1275000   1.090836       295.32256     -92.343393     -16569.176    
   1276000   1.089449       299.465        139.27231     -16613.135    
   1277000   1.0683502      301.37343     -734.1136      -16549.954    
   1278000   1.0823543      284.65693      78.149088     -16568.623    
   1279000   1.0831202      302.44687     -301.00029     -16485.176    
   1280000   1.088466       298.78513      248.80208     -16512.688    
   1281000   1.0840228      298.02019     -63.539069     -16556.139    
   1282000   1.0770183      290.15116      59.944937     -16539.542    
   1283000   1.0863437      291.27138      272.26689     -16653.782    
   1284000   1.0709182      298.67283      789.72038     -16613.146    
   1285000   1.0730686      297.62791      99.901318     -16524.725    
   1286000   1.0695918      294.41978      193.96107     -16628.046    
   1287000   1.0746574      290.14743     -12.768319     -16657.104    
   1288000   1.077996       299.81702     -182.82052     -16607.349    
   1289000   1.097441       296.65521      833.27948     -16573.046    
   1290000   1.0787904      306.05398     -321.45008     -16432.159    
   1291000   1.0762279      295.57179      433.44893     -16612.095    
   1292000   1.0773471      294.79095      44.452252     -16620.132    
   1293000   1.0803538      294.45864     -63.528971     -16499.458    
   1294000   1.0705695      298.97893     -454.85253     -16520.944    
   1295000   1.0777491      296.27809     -321.80715     -16627.497    
   1296000   1.0721883      295.16558     -299.75558     -16517.876    
   1297000   1.073243       305.45882     -835.95637     -16558.479    
   1298000   1.0873089      291.61772     -684.17971     -16588.085    
   1299000   1.0808756      297.3435      -160.62699     -16541.515    
   1300000   1.0748408      300.59401     -196.09924     -16545.774    
   1301000   1.0855735      295.70263      380.97227     -16545.484    
   1302000   1.0749483      295.80636      13.604406     -16526.801    
   1303000   1.0834134      291.78116     -473.87093     -16620.383    
   1304000   1.0728901      292.48456     -513.17527     -16583.558    
   1305000   1.0750454      301.58846      603.84494     -16466.332    
   1306000   1.0697115      299.7293      -10.297292     -16558.809    
   1307000   1.0693638      295.57509      450.30575     -16547.748    
   1308000   1.0678524      290.16337      12.94946      -16618.826    
   1309000   1.0748738      302.80149      514.23235     -16480.585    
   1310000   1.0833817      288.02685      157.21232     -16662.955    
   1311000   1.0806143      290.97374     -203.43787     -16490.204    
   1312000   1.0783758      298.11462     -5.2148661     -16567.815    
   1313000   1.0855293      300.84631      605.12616     -16509.783    
   1314000   1.0780682      293.01881      186.45257     -16552.017    
   1315000   1.0699679      282.84        -572.56907     -16585.361    
   1316000   1.0886573      287.63835      128.68539     -16646.285    
   1317000   1.0765371      306.32137     -220.33944     -16431.211    
   1318000   1.0754327      296.5113      -63.529138     -16533.536    
   1319000   1.0788428      290.87011      3.2466426     -16612.586    
   1320000   1.082913       300.95075     -191.51069     -16468.501    
   1321000   1.0782715      298.8807      -180.08608     -16561.666    
   1322000   1.0823897      291.75083      247.91421     -16613.785    
   1323000   1.0781063      295.99995     -531.2602      -16574.329    
   1324000   1.0734749      296.49739     -683.34247     -16537.432    
   1325000   1.0764079      305.3851       325.88901     -16486.748    
   1326000   1.0742837      293.03796     -246.16597     -16611.229    
   1327000   1.0723376      305.9775      -549.56836     -16458.073    
   1328000   1.0830926      286.83983      181.63032     -16626.182    
   1329000   1.0640393      295.72748      310.26938     -16516.297    
   1330000   1.0823332      299.5103       688.80281     -16519.84     
   1331000   1.0667927      301.77004     -530.87897     -16546.94     
   1332000   1.081056       302.55966     -183.20056     -16565.423    
   1333000   1.072488       307.41979     -147.00435     -16396.978    
   1334000   1.077828       299.49251     -178.17179     -16554.598    
   1335000   1.0766782      304.94528     -379.27808     -16501.563    
   1336000   1.080834       297.47157      366.54812     -16535.938    
   1337000   1.0708952      301.31498     -918.63075     -16571.123    
   1338000   1.0833046      298.24306      631.40732     -16564.653    
   1339000   1.0746263      297.24705     -851.55533     -16552.768    
   1340000   1.0799594      301.54792      248.72163     -16553.799    
   1341000   1.0763976      311.09079     -46.015179     -16445.368    
   1342000   1.0736266      290.79706     -302.67487     -16570.358    
   1343000   1.0695556      299.46067     -275.23362     -16551.708    
   1344000   1.0803841      295.3255       272.66365     -16613.533    
   1345000   1.0666699      306.0033      -317.79142     -16484.977    
   1346000   1.0754335      303.42386     -688.10954     -16445.777    
   1347000   1.0901351      298.69241      250.21057     -16647.487    
   1348000   1.0751122      294.58588     -500.04323     -16535.769    
   1349000   1.0979112      296.32868      749.29436     -16519.266    
   1350000   1.0781526      306.93986      209.44899     -16424.262    
   1351000   1.0772092      289.72609     -633.89082     -16574.426    
   1352000   1.0741747      300.31347     -465.88409     -16457.883    
   1353000   1.0727683      300.38037     -728.06921     -16519.462    
   1354000   1.0776772      292.82952      343.24038     -16569.811    
   1355000   1.0845389      301.09814      555.79548     -16501.222    
   1356000   1.0736562      296.66542     -177.50753     -16450.766    
   1357000   1.1026629      292.44599      558.64415     -16589.957    
   1358000   1.0711648      295.04791     -1019.397      -16546.458    
   1359000   1.0904993      298.78475     -292.8987      -16618.703    
   1360000   1.0780702      292.27718      279.74131     -16522.668    
   1361000   1.0683415      297.06747     -1224.0617     -16570.982    
   1362000   1.0694952      295.39761     -100.13291     -16550.214    
   1363000   1.078178       301.55943      169.18818     -16590.896    
   1364000   1.0897435      302.9731       409.81614     -16529.833    
   1365000   1.0853047      300.09544      971.22841     -16480.452    
   1366000   1.0759582      307.83184      515.62346     -16466.935    
   1367000   1.073866       293.45551     -530.60449     -16632.006    
   1368000   1.0877164      284.08667      626.14412     -16593.445    
   1369000   1.0843523      303.86542      175.72077     -16458.158    
   1370000   1.0833314      292.23703      476.02073     -16625.864    
   1371000   1.0896464      299.99702      11.903741     -16572.975    
   1372000   1.075848       294.28117     -383.45608     -16599.786    
   1373000   1.0842058      298.09486      214.02515     -16571.419    
   1374000   1.0825524      282.17462     -473.18083     -16665.316    
   1375000   1.0773965      303.17179     -63.901406     -16502.362    
   1376000   1.0719614      300.19457     -216.29875     -16424.849    
   1377000   1.0712647      297.45046     -447.2782      -16500.651    
   1378000   1.0759702      289.97208     -232.40081     -16456.893    
   1379000   1.0905847      299.16358      714.13878     -16631.551    
   1380000   1.0707036      299.44238     -230.43199     -16634.072    
   1381000   1.0804229      289.35824      90.901652     -16587.991    
   1382000   1.0790039      305.74204      29.142399     -16453.879    
   1383000   1.081359       301.44538     -132.81382     -16549.246    
   1384000   1.0774896      291.82444      237.68861     -16587.359    
   1385000   1.0732535      299.46578      284.73915     -16497.948    
   1386000   1.0741259      289.5146      -67.141552     -16697.417    
   1387000   1.0766929      299.56004      534.34178     -16571.733    
   1388000   1.0695881      298.66349     -842.18431     -16404.004    
   1389000   1.0903561      305.8261       405.81078     -16563.701    
   1390000   1.0789901      298.99113     -636.73633     -16452.105    
   1391000   1.0831654      288.97212     -73.425631     -16597.408    
   1392000   1.0742102      306.73268      76.410021     -16493.267    
   1393000   1.0709263      297.39668     -361.6535      -16470.83     
   1394000   1.0808949      296.8199       295.06884     -16481.922    
   1395000   1.0771861      298.01229      210.73869     -16475.98     
   1396000   1.0749283      291.01098      596.19407     -16509.973    
   1397000   1.090549       310.1019      -275.55031     -16505.918    
   1398000   1.0904762      297.67955      658.86421     -16542.323    
   1399000   1.0899816      294.43856      145.77635     -16480.418    
   1400000   1.0930943      295.60024      1691.7019     -16617.392    
   1401000   1.067291       306.10821     -417.9162      -16476.627    
   1402000   1.0847781      295.04378      738.47473     -16488.993    
   1403000   1.0940575      304.67686      616.5577      -16487.524    
   1404000   1.0786961      292.50837     -250.04406     -16500.881    
   1405000   1.0865974      302.84394      158.19616     -16444.268    
   1406000   1.0677203      284.24887     -641.22987     -16599.096    
   1407000   1.0677785      303.67664     -8.2751011     -16445.63     
   1408000   1.0841255      296.29997      116.81138     -16582.287    
   1409000   1.0752836      290.95474      114.03275     -16552.415    
   1410000   1.0814786      298.00566      903.03628     -16585.99     
   1411000   1.0807037      298.14191      356.56489     -16587.751    
   1412000   1.0843495      305.58171      103.36021     -16575.53     
   1413000   1.0806802      299.58549     -84.355469     -16535.815    
   1414000   1.0774097      291.26105     -395.47007     -16562.126    
   1415000   1.0781829      297.58913     -93.445764     -16459.229    
   1416000   1.0910281      297.1331       163.69219     -16492.127    
   1417000   1.0835449      298.02544      249.19762     -16502.892    
   1418000   1.077835       293.04983     -327.82268     -16567.269    
   1419000   1.0822255      305.45363     -295.99172     -16440.816    
   1420000   1.083582       292.99939      52.444578     -16572.094    
   1421000   1.0895066      298.71388      935.7827      -16522.936    
   1422000   1.0711373      295.76868     -360.54306     -16569.583    
   1423000   1.0718477      290.84654     -144.7444      -16560.058    
   1424000   1.0725404      294.99095     -91.108477     -16573.993    
   1425000   1.0852685      288.38764      87.760935     -16695.958    
   1426000   1.0725294      298.19102     -251.57192     -16611.384    
   1427000   1.0886804      295.0697      -108.11156     -16595.786    
   1428000   1.0798343      293.13461     -1009.3469     -16494.617    
   1429000   1.0812306      300.99484     -212.71254     -16523.964    
   1430000   1.0688476      301.54228      81.210487     -16451.259    
   1431000   1.0817987      298.76026      776.4119      -16566.49     
   1432000   1.0753358      299.61361      426.38894     -16557.408    
   1433000   1.0856086      295.40738     -196.53546     -16492.985    
   1434000   1.0883007      294.2295       205.78121     -16537.89     
   1435000   1.0701883      299.08573     -557.71635     -16431.964    
   1436000   1.0894961      304.98752      285.68205     -16478.352    
   1437000   1.0802589      294.81877     -314.71972     -16573.398    
   1438000   1.0845883      288.25607     -494.78382     -16680.112    
   1439000   1.0928201      289.11687     -498.18478     -16698.579    
   1440000   1.0842472      277.13584     -1002.982      -16599.89     
   1441000   1.0922246      304.03387     -37.106658     -16557.854    
   1442000   1.0679938      303.78737     -263.72046     -16471.583    
   1443000   1.0829018      305.84165      452.7907      -16558.372    
   1444000   1.0700295      289.56859      567.64547     -16529.551    
   1445000   1.0627185      298.09667     -349.71908     -16502.034    
   1446000   1.0875482      293.28669      766.27635     -16612.835    
   1447000   1.0722882      311.60642      258.80753     -16436.918    
   1448000   1.0876435      295.37397     -325.54122     -16553.644    
   1449000   1.0773109      304.35121     -48.104388     -16475.858    
   1450000   1.0693417      296.75033     -693.98455     -16515.913    
   1451000   1.0801032      293.9409      -25.663904     -16571.649    
   1452000   1.0839059      296.39652      242.00096     -16599.744    
   1453000   1.0834366      300.50743      263.40679     -16564.215    
   1454000   1.0778991      301.76937     -44.63086      -16563.176    
   1455000   1.0889901      293.87955     -399.42103     -16576.769    
   1456000   1.0701671      305.13771     -723.42397     -16504.738    
   1457000   1.0860954      291.92796     -667.59197     -16633.466    
   1458000   1.0694127      307.20594     -157.79507     -16430.069    
   1459000   1.0721172      290.54867      703.96518     -16558.445    
   1460000   1.0727299      288.07778      337.80666     -16608.383    
   1461000   1.0782208      300.16302     -584.05432     -16511.878    
   1462000   1.0742757      300.31356      135.28272     -16466.961    
   1463000   1.0797065      303.83603     -196.48911     -16504.085    
   1464000   1.0865348      292.85548      45.899289     -16579.95     
   1465000   1.0769947      300.81605      83.212275     -16419.081    
   1466000   1.0778019      295.69736      71.3163       -16569.199    
   1467000   1.0768678      297.01677     -5.6952839     -16475.464    
   1468000   1.0786505      301.91136      45.16535      -16508.637    
   1469000   1.0928786      298.20364      488.63899     -16574.277    
   1470000   1.0845431      303.53145     -55.630422     -16437.168    
   1471000   1.0849001      294.61749      171.9631      -16507.295    
   1472000   1.0919861      294.96179      753.65025     -16505.806    
   1473000   1.0806518      296.38895     -625.55149     -16594.537    
   1474000   1.0896499      296.63329      1112.4698     -16490.644    
   1475000   1.0767161      301.70492      226.36515     -16455.42     
   1476000   1.0824419      299.18587     -395.66646     -16441.44     
   1477000   1.0818474      297.30941     -212.25936     -16470.474    
   1478000   1.0768507      307.83421      40.334041     -16534.667    
   1479000   1.0685036      303.86168     -605.7537      -16537.336    
   1480000   1.0637683      299.47535     -1128.4126     -16505.522    
   1481000   1.084221       300.8562       80.557016     -16570.51     
   1482000   1.0703185      304.31927     -734.76861     -16490.852    
   1483000   1.0823063      299.8153       313.2922      -16508.165    
   1484000   1.0825503      298.34652     -102.71664     -16604.308    
   1485000   1.0782094      297.89392      314.3457      -16487.246    
   1486000   1.082597       300.75286     -39.676264     -16582.525    
   1487000   1.0841716      298.80146      449.99075     -16503.311    
   1488000   1.0894698      302.89216      547.52425     -16539.109    
   1489000   1.0661986      299.63098     -922.7415      -16514.725    
   1490000   1.0884667      298.8067       786.5214      -16495.253    
   1491000   1.0867869      292.13249     -116.22515     -16555.491    
   1492000   1.0821266      309.63326     -555.22218     -16423.087    
   1493000   1.0902893      296.87125     -23.401015     -16646.719    
   1494000   1.0785125      298.21898     -310.02053     -16533.105    
   1495000   1.0762501      299.68536      541.7811      -16525.584    
   1496000   1.0853261      294.49537      145.46015     -16631.965    
   1497000   1.076536       295.39358     -255.30379     -16535.541    
   1498000   1.0749966      298.61612      656.9653      -16519.145    
   1499000   1.0785569      302.97605     -127.11218     -16496.416    
   1500000   1.075992       295.97117      436.2663      -16566.461    
   1501000   1.0751384      298.88465      261.05373     -16506.152    
   1502000   1.0756737      291.79911     -592.72036     -16559.859    
   1503000   1.0879834      299.11787      361.0227      -16496.551    
   1504000   1.0836069      287.78947      625.14812     -16624.925    
   1505000   1.091466       301.41873     -152.24393     -16420.059    
   1506000   1.0892457      299.48968      52.447987     -16479.13     
   1507000   1.078573       296.00869      631.74662     -16527.166    
   1508000   1.0749606      293.30612      85.400701     -16499.955    
   1509000   1.0930183      303.45327      505.52523     -16505.453    
   1510000   1.0798332      298.64333      89.065768     -16569.139    
   1511000   1.0820568      296.74505      295.96463     -16560.407    
   1512000   1.0664754      302.12751     -73.267661     -16506.938    
   1513000   1.0911518      301.80798      292.3247      -16482.396    
   1514000   1.0808586      294.69148     -457.21033     -16563.081    
   1515000   1.0858345      284.16686      232.01193     -16666.382    
   1516000   1.0763427      292.75549     -269.10737     -16635.609    
   1517000   1.0776808      294.05694      172.58739     -16512.697    
   1518000   1.0841289      306.60483      354.60979     -16551.689    
   1519000   1.0804138      288.76909     -781.829       -16671.843    
   1520000   1.0824976      302.18409     -461.90355     -16528.538    
   1521000   1.0758325      289.17627      173.40704     -16666.823    
   1522000   1.0679901      298.52247      241.16213     -16572.278    
   1523000   1.0679802      304.75037      125.75715     -16532.796    
   1524000   1.0691141      297.51461      586.9381      -16622.089    
   1525000   1.0659914      304.99006     -279.09112     -16520.137    
   1526000   1.0759663      301.07147      385.86796     -16486.962    
   1527000   1.0760394      291.90071     -243.2336      -16574.536    
   1528000   1.0768846      299.7466      -230.55406     -16584.958    
   1529000   1.0786883      293.3439      -61.62651      -16479.461    
   1530000   1.0675288      301.86745      613.31087     -16473.682    
   1531000   1.0846526      289.12943      536.03765     -16621.692    
   1532000   1.0842559      298.43581      266.61904     -16537.989    
   1533000   1.0877632      289.68704      938.50689     -16527.376    
   1534000   1.0719553      296.09503     -215.61809     -16523.226    
   1535000   1.0833755      303.75441      781.10002     -16509.273    
   1536000   1.0824716      302.39967      896.84817     -16505.536    
   1537000   1.0767658      300.36603      72.609195     -16517.488    
   1538000   1.0863936      300.17541      44.135189     -16582.379    
   1539000   1.0725002      297.15188     -459.14172     -16553.427    
   1540000   1.0854092      295.64435      437.93634     -16570.955    
   1541000   1.0855514      294.09897      238.0996      -16627.929    
   1542000   1.0859844      299.22602      477.11219     -16594.366    
   1543000   1.0920694      294.32785      696.50889     -16553.953    
   1544000   1.0769207      299.25088     -746.43813     -16545.837    
   1545000   1.0823797      286.5171       159.68379     -16606.374    
   1546000   1.0795287      296.45154     -100.32237     -16557.658    
   1547000   1.0831863      293.57294      304.3315      -16541.03     
   1548000   1.0714983      298.20439     -174.3874      -16552.43     
   1549000   1.0802287      295.6087       202.94841     -16573.836    
   1550000   1.0814433      290.6922      -233.62373     -16566.924    
   1551000   1.0817474      303.74539      208.83109     -16440.137    
   1552000   1.0949594      300.82616      388.35424     -16589.032    
   1553000   1.0861781      295.67871     -70.430056     -16570.287    
   1554000   1.0824868      299.74527     -222.02121     -16576.085    
   1555000   1.0803913      285.60061     -394.90205     -16721.328    
   1556000   1.0786566      297.28505     -220.53811     -16579.407    
   1557000   1.0801847      299.37234     -469.88307     -16575.521    
   1558000   1.0818395      298.45895      667.41391     -16506.213    
   1559000   1.0821605      296.08607     -153.92958     -16500.647    
   1560000   1.0824965      285.06728     -66.850436     -16560.182    
   1561000   1.0755084      296.49166     -814.23905     -16529.175    
   1562000   1.0776688      306.83094     -174.27821     -16423.072    
   1563000   1.0793832      294.01666      227.1142      -16572.285    
   1564000   1.0779194      302.50721     -250.61992     -16570.396    
   1565000   1.0705868      297.37936      178.37906     -16558.528    
   1566000   1.0793098      291.90019     -23.558922     -16536.035    
   1567000   1.0787243      294.22153     -119.86022     -16458.847    
   1568000   1.0697167      296.86753     -582.06398     -16428.201    
   1569000   1.0846518      297.60867      335.43208     -16476.516    
   1570000   1.0769298      300.64456     -224.89529     -16551.763    
   1571000   1.0822256      284.50722     -98.213886     -16608.923    
   1572000   1.0822227      300.05557     -492.66917     -16577.908    
   1573000   1.0876864      294.50284      374.48896     -16641.994    
   1574000   1.0897134      297.85711      322.76198     -16572.7      
   1575000   1.0851834      293.63918      372.69798     -16610.623    
   1576000   1.0835639      308.59999      430.57214     -16454.087    
   1577000   1.081127       298.38103     -507.16467     -16577.487    
   1578000   1.0898177      297.67464     -51.41695      -16526.832    
   1579000   1.082934       306.37835      228.8152      -16530.962    
   1580000   1.0846815      290.22092     -378.99307     -16602.166    
   1581000   1.0788834      302.8555      -130.12206     -16531.034    
   1582000   1.0737564      296.13785     -273.20589     -16559.112    
   1583000   1.0834493      307.35213     -445.88735     -16447.032    
   1584000   1.0906704      302.31661      1042.5834     -16538.978    
   1585000   1.0685133      290.78587     -832.54361     -16653.319    
   1586000   1.0766587      296.60096     -536.84608     -16542.504    
   1587000   1.0840974      302.13048     -533.34328     -16543.824    
   1588000   1.0809984      291.4794      -222.15299     -16656.48     
   1589000   1.0681056      295.23222     -453.34039     -16455.708    
   1590000   1.0816739      295.10885      571.80416     -16525.642    
   1591000   1.0700212      295.39926      278.21915     -16572.249    
   1592000   1.0911784      298.32312      443.14608     -16667.461    
   1593000   1.0785233      303.29548     -252.60436     -16434.825    
   1594000   1.0745161      287.653       -265.87183     -16593.723    
   1595000   1.0753568      288.31623     -610.51384     -16519.026    
   1596000   1.0852498      298.60895      427.79119     -16442.974    
   1597000   1.0807767      295.83008     -625.34413     -16521.111    
   1598000   1.0861457      296.33281     -315.72934     -16526.249    
   1599000   1.0825777      292.27975     -238.6703      -16534.757    
   1600000   1.0803746      289.46746     -199.7121      -16614.051    
   1601000   1.0691093      293.42198     -1280.0341     -16585.52     
   1602000   1.081075       297.84603      969.23075     -16644.067    
   1603000   1.0695617      301.6914       691.206       -16427.746    
   1604000   1.0766064      292.40053      557.50991     -16583.713    
   1605000   1.0773342      307.42641     -365.04263     -16549.947    
   1606000   1.0785957      293.50753     -189.86789     -16684.374    
   1607000   1.0712626      304.02685     -352.73313     -16590.986    
   1608000   1.0800485      302.57885      317.53599     -16577.82     
   1609000   1.075517       294.99444     -231.01902     -16572.557    
   1610000   1.076762       299.29845      72.696885     -16543.467    
   1611000   1.074684       309.22693     -5.2858277     -16445.016    
   1612000   1.0719471      297.09254     -383.06429     -16554.704    
   1613000   1.075665       301.73712      136.06188     -16499.92     
   1614000   1.0785276      293.62662     -195.99122     -16508.43     
   1615000   1.0810218      298.0366      -631.1352      -16530.327    
   1616000   1.0821132      294.08668      264.41134     -16575.624    
   1617000   1.0817694      303.55308      261.05192     -16469.334    
   1618000   1.0626996      295.05293     -1339.4582     -16560.003    
   1619000   1.0708493      295.16964      569.71356     -16648.611    
   1620000   1.0688298      294.00633     -465.91943     -16629.133    
   1621000   1.0882902      298.80652      967.08803     -16563.393    
   1622000   1.0731448      298.31682     -977.62509     -16500.372    
   1623000   1.0834981      301.71421      561.34813     -16526.261    
   1624000   1.0769937      299.74443     -200.43635     -16604.635    
   1625000   1.0683774      297.25081     -553.90133     -16581.305    
   1626000   1.085854       293.34808      362.38798     -16591.27     
   1627000   1.0717299      298.99642     -602.45553     -16493.179    
   1628000   1.0831177      291.34774      3.3206864     -16617.161    
   1629000   1.0762642      309.47493     -756.80029     -16509.655    
   1630000   1.0871148      307.12668      59.669553     -16498.133    
   1631000   1.0817782      293.29994      363.60782     -16566.69     
   1632000   1.0702968      288.25368      182.46769     -16642.119    
   1633000   1.0794557      298.64626      25.324661     -16550.029    
   1634000   1.0744624      296.97272      268.56235     -16602.685    
   1635000   1.0803253      302.11788      482.01404     -16470.988    
   1636000   1.0761474      303.25017     -584.03555     -16516.806    
   1637000   1.0786813      300.45772     -368.06986     -16514.614    
   1638000   1.0710474      292.92322     -596.82809     -16608.931    
   1639000   1.077158       285.13783     -273.02844     -16569.427    
   1640000   1.0867331      308.51766     -223.30396     -16555.829    
   1641000   1.0747521      298.27756     -936.6421      -16561.838    
   1642000   1.0804621      297.95763      207.48089     -16563.669    
   1643000   1.0873409      298.96669     -63.916418     -16525.005    
   1644000   1.0754123      298.48651     -154.30446     -16557.963    
   1645000   1.0762979      292.08868      353.73722     -16626.86     
   1646000   1.0725492      304.84261      427.50706     -16515.88     
   1647000   1.0671874      302.81559     -201.74368     -16518.883    
   1648000   1.0680738      305.39998     -214.4238      -16452.171    
   1649000   1.0887759      298.83517      155.84527     -16553.874    
   1650000   1.0753028      301.39788     -31.298542     -16388.647    
   1651000   1.0649711      298.3193      -983.56979     -16559.601    
   1652000   1.0794715      308.31762      172.80795     -16449.16     
   1653000   1.0727021      289.83211     -786.05851     -16616.67     
   1654000   1.069715       300.93519      56.180636     -16541.331    
   1655000   1.0776409      293.21955     -123.23807     -16607.835    
   1656000   1.0819667      287.57722      622.95323     -16580.047    
   1657000   1.0719701      293.75842     -183.64408     -16569.938    
   1658000   1.0673055      311.83872      459.49781     -16495.145    
   1659000   1.074075       294.95859      270.97536     -16619.205    
   1660000   1.072486       297.17111      634.69792     -16470.631    
   1661000   1.0745528      300.74243     -358.30037     -16561.289    
   1662000   1.0828036      302.52147      500.31954     -16462.255    
   1663000   1.0711205      306.29618      272.70226     -16409.927    
   1664000   1.0781967      297.05888      13.021412     -16529.778    
   1665000   1.0834466      292.9928       138.879       -16567.446    
   1666000   1.0887996      293.68221      42.376591     -16689.116    
   1667000   1.0876478      299.16721      909.07517     -16548.301    
   1668000   1.0739944      295.48441     -267.01125     -16445.083    
   1669000   1.0844477      303.11917      444.05058     -16463.284    
   1670000   1.0805841      294.54482     -473.73304     -16594.974    
   1671000   1.0819089      299.55213     -461.78052     -16543.893    
   1672000   1.0867099      301.66024     -415.26873     -16521.623    
   1673000   1.0797783      304.66683      581.89626     -16513.668    
   1674000   1.0878458      302.45783      549.32577     -16570.45     
   1675000   1.0750324      297.1659       291.92041     -16539.679    
   1676000   1.0794817      287.36625      461.91444     -16625.317    
   1677000   1.0805287      302.60715     -418.02338     -16619.888    
   1678000   1.0754499      297.6678      -800.03649     -16571.957    
   1679000   1.0735786      301.95642     -349.33274     -16528.878    
   1680000   1.084012       294.70514      526.6654      -16594.845    
   1681000   1.0708423      301.4724      -548.44395     -16471.127    
   1682000   1.0815214      289.27209      1140.4846     -16642.172    
   1683000   1.0850868      302.577        20.537172     -16503.741    
   1684000   1.0718807      299.56723      44.950769     -16547.599    
   1685000   1.0918776      294.33913      1091.5256     -16599.327    
   1686000   1.0755871      294.79989     -571.77384     -16538.512    
   1687000   1.0764123      298.92086      258.12185     -16518.322    
   1688000   1.0766609      296.864       -346.61323     -16569.02     
   1689000   1.0794783      299.86361     -329.45851     -16485.226    
   1690000   1.0680278      301.49532     -233.53285     -16575.756    
   1691000   1.0676709      292.12666     -228.74974     -16487.596    
   1692000   1.0705176      305.05894     -757.22714     -16453.527    
   1693000   1.0990639      298.88241      417.0247      -16563.428    
   1694000   1.0767799      303.35901     -418.55882     -16490.887    
   1695000   1.0805019      292.09142      690.1138      -16581.704    
   1696000   1.0704741      297.56321      95.297368     -16512.177    
   1697000   1.0710066      306.12002      151.38803     -16507.87     
   1698000   1.0784261      284.41069     -444.90512     -16684.516    
   1699000   1.0809047      295.21099      672.81736     -16511.018    
   1700000   1.0688055      301.13274     -56.1634       -16518.316    
   1701000   1.0742517      300.46272      290.2285      -16510.121    
   1702000   1.0761497      297.39563     -306.47719     -16500.098    
   1703000   1.0753286      302.4235      -506.29056     -16459.29     
   1704000   1.0834961      292.13515      222.04772     -16574.888    
   1705000   1.0696906      289.92744     -659.14971     -16611.074    
   1706000   1.0792176      301.11516      261.66176     -16411.893    
   1707000   1.0779548      301.27741      163.95152     -16487.65     
   1708000   1.0736743      294.6658      -458.89643     -16550.835    
   1709000   1.0938965      297.46437      403.72376     -16601.149    
   1710000   1.0740685      301.28947     -1225.2878     -16569.586    
   1711000   1.0796312      295.38106     -248.3968      -16568.206    
   1712000   1.0677447      303.56731      194.91331     -16472.679    
   1713000   1.0795347      296.35873     -42.185207     -16544.592    
   1714000   1.0918031      302.23982      397.11049     -16472.851    
   1715000   1.0748275      299.22275     -1126.1445     -16446.628    
   1716000   1.0714286      296.9215      -910.73479     -16573.859    
   1717000   1.0894125      294.28842     -114.86768     -16594.926    
   1718000   1.0820849      293.15478      36.482126     -16608.272    
   1719000   1.0729746      300.63531     -350.24945     -16491.517    
   1720000   1.0756344      302.13225      313.91328     -16622.813    
   1721000   1.0619998      298.43493     -83.672079     -16602.008    
   1722000   1.0756513      300.06065      165.33481     -16477.449    
   1723000   1.073236       294.16704     -222.016       -16616.066    
   1724000   1.0717699      292.03575     -596.66759     -16646.441    
   1725000   1.0831776      296.28285      546.32071     -16762.716    
   1726000   1.0676421      298.06387     -525.88481     -16535.393    
   1727000   1.0813808      304.94497      309.31779     -16551.887    
   1728000   1.0773134      295.68539      423.52105     -16543.783    
   1729000   1.0780831      294.60199     -871.29997     -16600.201    
   1730000   1.0769048      298.01408      355.34147     -16500.398    
   1731000   1.0708071      302.57995      671.38013     -16507.524    
   1732000   1.0706011      304.7081      -372.1704      -16532.655    
   1733000   1.0825953      295.00344     -15.404622     -16633.001    
   1734000   1.0644973      292.61622     -207.17536     -16515.809    
   1735000   1.0779577      295.76152      281.16382     -16568.914    
   1736000   1.0727182      299.5956      -938.91015     -16498.762    
   1737000   1.0833374      289.79543      83.138767     -16656.454    
   1738000   1.0814324      306.98076      241.5694      -16498.521    
   1739000   1.0799099      290.49546     -654.07006     -16593.169    
   1740000   1.0786472      294.36646     -445.32308     -16571.578    
   1741000   1.0832014      307.56915     -325.51936     -16485.343    
   1742000   1.0830786      301.24624     -714.17747     -16555.976    
   1743000   1.0695325      312.71248     -748.47361     -16407.224    
   1744000   1.0782061      295.70651      223.80053     -16528.994    
   1745000   1.0738876      300.91099     -392.51434     -16489.268    
   1746000   1.0837696      286.30639      765.25522     -16562.533    
   1747000   1.0765324      292.8667       315.69019     -16586.356    
   1748000   1.0767864      294.21349     -339.84688     -16619.482    
   1749000   1.0873461      292.05258     -207.76844     -16579.616    
   1750000   1.0875042      302.64562     -866.52203     -16474.611    
   1751000   1.0835569      291.81011     -848.97745     -16644.777    
   1752000   1.0927996      291.79609     -531.14508     -16608.515    
   1753000   1.0835113      303.47306      92.51599      -16478.093    
   1754000   1.0787338      300.37905     -350.01734     -16602.474    
   1755000   1.0869292      291.77487      995.8104      -16660.313    
   1756000   1.0723376      293.63459     -241.52426     -16556.399    
   1757000   1.0681337      293.65629     -1285.5271     -16565.833    
   1758000   1.0857929      286.39778     -414.89545     -16629.765    
   1759000   1.0880589      298.87148      818.81253     -16527.284    
   1760000   1.0771646      295.75655     -568.91406     -16593.814    
   1761000   1.0749119      304.21584      331.18353     -16519.663    
   1762000   1.0697912      294.3697      -444.12993     -16579.597    
   1763000   1.0743046      300.86657      139.43208     -16633.532    
   1764000   1.0700523      298.57381     -412.07577     -16426.404    
   1765000   1.0825743      305.40638      634.59131     -16500.689    
   1766000   1.0575871      289.36279     -1071.3988     -16550.041    
   1767000   1.0849719      291.7511       1102.6043     -16553.061    
   1768000   1.0693175      297.84609      45.395021     -16460.217    
   1769000   1.0766827      292.47867      72.72512      -16524.41     
   1770000   1.0724194      308.8615      -426.69728     -16539.828    
   1771000   1.0837762      291.62875      306.69116     -16559.742    
   1772000   1.0755112      297.4207       112.03733     -16534.648    
   1773000   1.0836551      294.26629      523.71305     -16569.121    
   1774000   1.0708663      303.48404     -385.20931     -16522.224    
   1775000   1.0741228      298.63594     -776.19885     -16562.528    
   1776000   1.0797136      294.1257      -48.645638     -16597.082    
   1777000   1.0628855      299.04651     -192.68328     -16574.512    
   1778000   1.0809504      299.22809      254.69848     -16612.864    
   1779000   1.0964871      299.07502      466.52068     -16603.27     
   1780000   1.0887104      289.14049     -757.6407      -16675.152    
   1781000   1.0883009      300.94173     -526.32482     -16607.506    
   1782000   1.0999957      308.49808      293.06448     -16550.493    
   1783000   1.0820887      296.40634      366.39542     -16577.867    
   1784000   1.0833931      290.50532      295.35706     -16559.604    
   1785000   1.081456       301.20005     -159.45851     -16581.896    
   1786000   1.0893017      299.31764      389.01346     -16535.544    
   1787000   1.0794314      310.98134     -161.4167      -16303.632    
   1788000   1.0887949      298.23387      1113.529      -16441.463    
   1789000   1.0809786      305.75047     -301.57658     -16442.053    
   1790000   1.0730123      303.69003      115.37209     -16415.755    
   1791000   1.074554       300.99483     -434.42196     -16490.243    
   1792000   1.0760748      310.02746     -761.01707     -16493.059    
   1793000   1.0844097      290.79491     -1152.0715     -16661.937    
   1794000   1.0782518      295.96115     -283.7223      -16573.098    
   1795000   1.0843309      299.98688      632.81362     -16534.21     
   1796000   1.0859349      300.1939       386.23867     -16615.865    
   1797000   1.0645058      299.09671     -121.09369     -16526.853    
   1798000   1.0890741      299.4491       317.42412     -16636.151    
   1799000   1.0701232      299.98817     -674.68201     -16578.555    
   1800000   1.0832646      299.62175      234.08968     -16579.826    
   1801000   1.0835965      299.53022     -360.7745      -16499.25     
   1802000   1.0840553      298.04325     -277.3804      -16512.619    
   1803000   1.0819608      302.59956      493.1986      -16463.41     
   1804000   1.0785586      297.61254     -795.65906     -16556.697    
   1805000   1.0863446      296.15791     -260.60642     -16641.268    
   1806000   1.0857956      295.02097      431.57708     -16607.254    
   1807000   1.0753773      305.71947      311.50848     -16402.19     
   1808000   1.0977967      302.03463      276.84791     -16589.075    
   1809000   1.0855106      309.56008     -742.911       -16468.899    
   1810000   1.0926619      304.02752     -448.96028     -16589.159    
   1811000   1.0944985      294.33012      224.30053     -16530.937    
   1812000   1.0870916      301.71246     -328.3625      -16417.107    
   1813000   1.0863959      299.40367     -402.83915     -16575.411    
   1814000   1.0857601      288.57712      98.070396     -16585.137    
   1815000   1.0760858      301.86867      189.39037     -16475.066    
   1816000   1.0867772      292.9827      -84.714882     -16595.808    
   1817000   1.0593185      304.43449     -438.68768     -16402.908    
   1818000   1.0872601      295.76702      298.42554     -16545.161    
   1819000   1.0799921      299.25226     -685.46383     -16522.592    
   1820000   1.0851699      298.27647     -46.832385     -16535.184    
   1821000   1.0752432      298.76114      326.47821     -16529.921    
   1822000   1.0818014      302.43186      147.92026     -16433.842    
   1823000   1.0876593      287.1368       240.88314     -16725.36     
   1824000   1.078967       298.20238      467.22034     -16567.337    
   1825000   1.0600049      300.5573      -782.85206     -16580.121    
   1826000   1.0819171      302.41778     -81.600439     -16566.583    
   1827000   1.0781792      300.05238      454.84524     -16643.366    
   1828000   1.0734246      305.87788      6.5958896     -16527.286    
   1829000   1.0720681      306.05904     -196.19785     -16494.293    
   1830000   1.0800822      298.49307      119.37193     -16531.572    
   1831000   1.0783717      294.21459     -833.84092     -16554.525    
   1832000   1.0910091      298.59354      741.28021     -16560.189    
   1833000   1.0797794      292.81784     -793.63865     -16512.22     
   1834000   1.0983646      294.29185      1264.5446     -16596.946    
   1835000   1.0740309      300.72023     -44.382001     -16578.272    
   1836000   1.0833055      291.4598      -411.57694     -16596.689    
   1837000   1.0794078      294.61018     -278.31624     -16563.446    
   1838000   1.0728855      297.34131     -59.87575      -16568.565    
   1839000   1.0710991      302.255       -730.75178     -16466.031    
   1840000   1.0831472      311.03374     -29.700913     -16447.797    
   1841000   1.0846268      298.86894      730.74463     -16495.734    
   1842000   1.08446        293.54114      258.28257     -16637.433    
   1843000   1.0883172      287.36492     -140.4782      -16655.643    
   1844000   1.0862674      285.2076      -189.7204      -16630.272    
   1845000   1.0834184      302.48208      9.3204508     -16514.801    
   1846000   1.0805401      293.99087      315.43424     -16593.523    
   1847000   1.0736171      299.93353     -690.45183     -16515.685    
   1848000   1.08809        299.66328      249.87861     -16590.547    
   1849000   1.0674257      293.43111     -441.09867     -16455.097    
   1850000   1.0837409      286.95896      96.513411     -16583.489    
   1851000   1.0766382      291.922       -266.62009     -16562.404    
   1852000   1.0796174      294.84665     -764.49392     -16572.974    
   1853000   1.0893209      301.50443      503.26987     -16484.361    
   1854000   1.0661413      297.13949     -926.33411     -16468.791    
   1855000   1.087547       297.21832      551.44688     -16459.875    
   1856000   1.0728365      293.78536     -451.62183     -16506.754    
   1857000   1.086693       294.33685      336.40911     -16571.926    
   1858000   1.0850298      301.18831     -52.265207     -16557.439    
   1859000   1.0828657      300.3829      -62.553201     -16479.083    
   1860000   1.0861657      291.93076      320.0033      -16630.315    
   1861000   1.0713041      304.4562      -563.97245     -16459.36     
   1862000   1.0725134      301.1157      -60.677233     -16505.847    
   1863000   1.076348       300.63392     -152.497       -16523.129    
   1864000   1.0791225      296.81233     -816.96293     -16629.327    
   1865000   1.0690191      298.93851     -47.563988     -16495.587    
   1866000   1.0762059      293.4199       135.70236     -16595.774    
   1867000   1.0704141      300.84739     -400.47114     -16494.031    
   1868000   1.0674385      301.91471      245.12376     -16476.792    
   1869000   1.067523       296.49918     -319.13471     -16602.849    
   1870000   1.0756092      306.70662      1251.7537     -16404.867    
   1871000   1.0757327      299.70129      279.34785     -16532.392    
   1872000   1.0777701      305.62586      140.58011     -16487.477    
   1873000   1.0792362      302.23891      149.9801      -16485.449    
   1874000   1.0695375      295.92422     -923.71256     -16566.681    
   1875000   1.0877743      299.99368      927.27161     -16579.621    
   1876000   1.0758568      298.15712     -97.431811     -16501.38     
   1877000   1.0754322      301.52768      203.3187      -16540.538    
   1878000   1.0847293      299.78956      236.52812     -16459.216    
   1879000   1.0918378      295.69656      232.03759     -16617.17     
   1880000   1.0756686      301.88891      141.58284     -16428.487    
   1881000   1.0940576      298.46482      365.11934     -16529.036    
   1882000   1.0745809      300.90912      48.12723      -16463.032    
   1883000   1.0832638      296.18476      710.03267     -16556.566    
   1884000   1.0756276      300.12021     -538.5887      -16460.179    
   1885000   1.078408       297.36132      11.776076     -16548.386    
   1886000   1.0661802      304.74429      13.050935     -16456.65     
   1887000   1.0648337      292.8395       762.49305     -16504.376    
   1888000   1.0750828      310.81145      367.72264     -16419.188    
   1889000   1.0645389      289.11549     -265.43077     -16572.118    
   1890000   1.0774118      309.10906      457.49886     -16460.111    
   1891000   1.0725658      292.28296     -415.62856     -16537.658    
   1892000   1.0790158      300.88232      92.719556     -16493.15     
   1893000   1.0883831      296.14778      1021.4024     -16471.628    
   1894000   1.0723246      300.78787     -383.56896     -16486.751    
   1895000   1.0753335      294.07264      414.4074      -16488.867    
   1896000   1.0724708      296.3313      -29.43842      -16492.682    
   1897000   1.082669       299.7702      -162.24582     -16543.274    
   1898000   1.0869075      296.20124      1028.302      -16539.33     
   1899000   1.0773026      301.16437      608.7424      -16529.459    
   1900000   1.0727525      288.29009     -346.21074     -16540.575    
   1901000   1.0870729      289.00234      890.15229     -16571.495    
   1902000   1.0771672      293.82732     -476.45978     -16516.426    
   1903000   1.0825478      298.12516     -239.44059     -16477.385    
   1904000   1.0667709      297.87059     -650.32776     -16618.984    
   1905000   1.0781709      298.70624     -390.37023     -16560.299    
   1906000   1.067781       298.23462     -638.67587     -16480.824    
   1907000   1.0875586      290.74863      942.92514     -16611.947    
   1908000   1.0615572      303.61922     -829.81326     -16475.887    
   1909000   1.0901842      291.92109      780.05048     -16649.357    
   1910000   1.0790664      302.36403     -266.13701     -16615.369    
   1911000   1.0867678      298.9109      -131.09854     -16521.132    
   1912000   1.0774172      301.90582     -31.936978     -16524.865    
   1913000   1.0876649      308.45395      323.99641     -16480.236    
   1914000   1.0778207      293.81206     -436.26904     -16483.197    
   1915000   1.0839712      301.50804     -398.62129     -16504.536    
   1916000   1.0777405      297.1315      -857.16031     -16564.704    
   1917000   1.0878809      299.78675      834.99869     -16546.579    
   1918000   1.0685699      284.04277      262.31925     -16673.351    
   1919000   1.0909193      293.24553      628.65228     -16670.445    
   1920000   1.0714024      303.58238      95.047271     -16510.735    
   1921000   1.0885712      307.66144      1244.7523     -16503.597    
   1922000   1.0787326      290.63553      171.27944     -16587.832    
   1923000   1.0861901      290.81501     -734.94929     -16646.533    
   1924000   1.0832127      303.94103     -610.23396     -16485.912    
   1925000   1.0852075      298.20426     -565.55493     -16594.154    
   1926000   1.0697687      286.06004     -457.51557     -16566.519    
   1927000   1.0727771      296.24906     -432.65893     -16572.203    
   1928000   1.0736109      295.28338      812.15556     -16530.056    
   1929000   1.0815458      302.64477      33.631794     -16490.954    
   1930000   1.0858864      298.31394      238.11419     -16553.361    
   1931000   1.0719802      292.53746     -528.30819     -16579.387    
   1932000   1.0856165      298.4092      -93.408828     -16560.518    
   1933000   1.0777021      296.72694     -102.62227     -16581.987    
   1934000   1.0678792      290.4829      -372.67276     -16633.341    
   1935000   1.0843903      293.67663     -160.02453     -16593.198    
   1936000   1.0716087      299.20411      511.67846     -16533.5      
   1937000   1.0775093      303.30224      88.06218      -16497.495    
   1938000   1.0825658      297.22073     -313.96963     -16570.512    
   1939000   1.0773794      293.41373     -348.0972      -16593.228    
   1940000   1.0838833      294.95138      715.64713     -16629.703    
   1941000   1.0758404      294.00538      149.68532     -16552.839    
   1942000   1.079932       297.65673      49.81098      -16473.082    
   1943000   1.0946413      297.51021      791.32104     -16520.47     
   1944000   1.0862834      302.00346     -485.94128     -16482.592    
   1945000   1.0957564      297.85846      170.24778     -16557.241    
   1946000   1.0682333      295.20599     -1033.6297     -16599.683    
   1947000   1.081615       296.83502      320.51052     -16635.427    
   1948000   1.0777001      304.60505     -685.05109     -16544.24     
   1949000   1.0883398      298.13324      562.55174     -16665.489    
   1950000   1.0791451      304.44842      181.8897      -16471.83     
   1951000   1.0867283      302.74165     -181.86911     -16560.965    
   1952000   1.0869181      295.91907     -315.19881     -16512.785    
   1953000   1.0852683      302.9393       236.02775     -16446.25     
   1954000   1.0680074      305.95288     -390.42379     -16478.7      
   1955000   1.0799196      299.16925     -664.08864     -16431.473    
   1956000   1.0851416      293.56878     -130.78522     -16589.679    
   1957000   1.081661       304.1389       596.81508     -16571.266    
   1958000   1.0728134      289.96754     -150.54979     -16549.428    
   1959000   1.0745523      294.19355     -707.6948      -16515.833    
   1960000   1.0624278      289.81498     -115.44028     -16609.504    
   1961000   1.0695508      308.87367     -490.67758     -16419.316    
   1962000   1.0797451      291.03975     -41.117911     -16542.142    
   1963000   1.0753664      298.4943       504.12406     -16449.754    
   1964000   1.0838061      303.70237     -46.833054     -16483.238    
   1965000   1.0799314      298.76037     -177.46803     -16578.839    
   1966000   1.0780096      294.60253     -709.47508     -16579.182    
   1967000   1.0789532      302.45516     -175.07757     -16570.437    
   1968000   1.073551       300.09378     -167.4555      -16595.749    
   1969000   1.0771008      289.55902     -651.21848     -16603.556    
   1970000   1.0756767      303.81719      288.57455     -16507.033    
   1971000   1.0794914      297.76832      417.154       -16613.147    
   1972000   1.089899       285.85024      385.67016     -16554.618    
   1973000   1.0870064      296.15768     -66.364142     -16449.925    
   1974000   1.0786914      294.77518      240.09219     -16558.77     
   1975000   1.0902094      294.42916      154.30072     -16650.259    
   1976000   1.0818451      298.61488     -50.924068     -16489.877    
   1977000   1.0649145      294.77765      121.27733     -16515.384    
   1978000   1.0878823      287.42829      484.77045     -16566.68     
   1979000   1.065078       297.30759     -837.45713     -16545.07     
   1980000   1.0759036      308.14029     -604.9232      -16466.751    
   1981000   1.082443       295.49009      547.24922     -16520.718    
   1982000   1.0684793      293.54992     -674.14294     -16500.701    
   1983000   1.0705346      295.7272      -406.75201     -16574.315    
   1984000   1.0716131      301.14439     -797.44104     -16552.521    
   1985000   1.0691345      297.83911     -15.596392     -16580.754    
   1986000   1.0714139      297.59969      307.93963     -16533.268    
   1987000   1.0785277      301.54007      148.83647     -16607.712    
   1988000   1.0676844      297.42425     -60.505314     -16508.911    
   1989000   1.0876563      288.13775      681.89464     -16658.07     
   1990000   1.0701486      308.93416      150.20604     -16420.967    
   1991000   1.078147       290.57869     -401.18405     -16596.968    
   1992000   1.0718826      298.67907      44.20364      -16527.235    
   1993000   1.0769475      298.71436      538.9711      -16499.985    
   1994000   1.0753216      297.17521     -93.616627     -16627.044    
   1995000   1.0894373      297.30246      928.33425     -16623.965    
   1996000   1.0743992      304.3665      -681.6613      -16489.064    
   1997000   1.0827584      298.8428      -161.9536      -16537.592    
   1998000   1.081965       299.9418       322.97028     -16566.165    
   1999000   1.0794607      301.34599      1137.8043     -16541.73     
   2000000   1.0663897      289.798       -446.82951     -16536.747    
   2001000   1.0765163      295.00729     -180.92102     -16677.151    
   2002000   1.0816927      304.43338     -534.3173      -16549.236    
   2003000   1.0716159      296.14218     -849.992       -16559.658    
   2004000   1.0726911      309.15484     -536.58953     -16462.728    
   2005000   1.0766664      296.29626      551.54383     -16555.85     
   2006000   1.0692915      305.27338      518.57602     -16487.859    
   2007000   1.0767187      297.73967      967.86543     -16486.865    
   2008000   1.0724991      306.00225      96.765176     -16500.19     
   2009000   1.0736819      297.43242      172.09256     -16513.287    
   2010000   1.0793806      296.00738      384.88229     -16487.226    
   2011000   1.0812653      304.95462      143.88713     -16434.08     
   2012000   1.0744685      290.63601     -277.4689      -16600.796    
   2013000   1.0750015      293.60368      128.20255     -16460.992    
   2014000   1.0868788      302.14095     -46.228716     -16428.146    
   2015000   1.0860548      298.99834     -423.45504     -16532.594    
   2016000   1.0810386      299.88801     -361.92354     -16622.608    
   2017000   1.0764511      301.1475      -98.894161     -16595.961    
   2018000   1.0803323      302.14168     -174.49299     -16466.732    
   2019000   1.0866973      301.47448      23.349398     -16485.866    
   2020000   1.0891082      301.33062     -43.383962     -16620.748    
   2021000   1.0782613      300.52271     -461.97095     -16619.42     
   2022000   1.0901594      296.04989     -193.88941     -16673.638    
   2023000   1.0809219      296.42162     -914.65277     -16586.973    
   2024000   1.0709062      294.34203     -130.23588     -16587.661    
   2025000   1.0762611      289.89979      1200.8711     -16640.348    
   2026000   1.0795593      299.63898      509.94572     -16558.532    
   2027000   1.0716153      300.95695     -805.47062     -16532.009    
   2028000   1.0806091      299.65546      867.85604     -16565.884    
   2029000   1.0744377      295.54793      37.332616     -16497.379    
   2030000   1.0797328      293.81784      206.99081     -16598.315    
   2031000   1.0773709      292.69126     -724.96456     -16554.772    
   2032000   1.0745951      295.1811      -142.7847      -16559.368    
   2033000   1.0764194      291.26009      306.98434     -16538.817    
   2034000   1.0794605      303.44455     -239.67368     -16527.023    
   2035000   1.0788491      299.22551      115.6765      -16444.375    
   2036000   1.0883087      299.34201      339.1461      -16590.887    
   2037000   1.0833698      308.98709     -80.095544     -16406.08     
   2038000   1.0789727      298.83996     -345.73773     -16536.609    
   2039000   1.0755261      304.00539      374.76322     -16472.716    
   2040000   1.0793239      305.97836     -489.65688     -16462.136    
   2041000   1.0714253      295.99289      59.247913     -16537.457    
   2042000   1.0898284      299.22494      349.15149     -16577.707    
   2043000   1.0836729      297.8162      -299.47969     -16534.008    
   2044000   1.084477       304.20196      461.65842     -16488.597    
   2045000   1.0843636      296.5066       341.15755     -16647.632    
   2046000   1.0822249      294.5818      -190.06156     -16498.778    
   2047000   1.0778665      304.05313      746.11253     -16495.564    
   2048000   1.0681256      300.63313     -226.44729     -16511.353    
   2049000   1.076208       287.57651     -443.52712     -16619.213    
   2050000   1.0805063      297.5856      -632.62572     -16571.836    
   2051000   1.0902691      299.50546     -361.19588     -16617.857    
   2052000   1.0890325      302.62465      395.22333     -16491.315    
   2053000   1.0798084      298.689       -800.45968     -16509.049    
   2054000   1.0765276      301.89981     -655.82773     -16624.465    
   2055000   1.0825221      293.75397     -7.2734434     -16546.395    
   2056000   1.0748631      290.88367      131.39586     -16658.884    
   2057000   1.0843774      303.87316      914.76975     -16587.649    
   2058000   1.0850198      291.30725     -261.35386     -16624.165    
   2059000   1.0828097      301.5799      -269.72285     -16567.252    
   2060000   1.0811868      297.52841     -450.31765     -16599.544    
   2061000   1.082917       290.57038      466.23597     -16614.761    
   2062000   1.0749039      305.50445      464.88577     -16489.89     
   2063000   1.0740152      306.79627     -447.28208     -16586.522    
   2064000   1.0620408      294.3739      -482.54855     -16494.283    
   2065000   1.0876098      295.66797      1397.3179     -16623.513    
   2066000   1.0582952      302.25176     -431.08525     -16503.325    
   2067000   1.0845899      288.51327      260.16659     -16705.215    
   2068000   1.0837063      303.16278      264.23112     -16594.887    
   2069000   1.0696045      301.38831     -203.0879      -16492.987    
   2070000   1.0867         306.56248     -361.60831     -16498.941    
   2071000   1.0720874      299.0731      -1079.3931     -16534.809    
   2072000   1.0653818      308.36137     -552.76819     -16510.628    
   2073000   1.0811609      298.66253      973.41451     -16591.642    
   2074000   1.0781098      298.56107     -272.37235     -16605.868    
   2075000   1.0876829      300.90908      148.59421     -16610.756    
   2076000   1.0707588      296.00258     -158.07309     -16511.638    
   2077000   1.0861722      310.49747      1070.7656     -16499.864    
   2078000   1.0804088      289.12617      28.51786      -16611.829    
   2079000   1.0738733      302.94657     -565.68346     -16440.546    
   2080000   1.0838764      285.38719     -79.570605     -16578.596    
   2081000   1.0720171      298.61002     -867.31131     -16561.863    
   2082000   1.0833605      299.11581      426.96637     -16661.538    
   2083000   1.0782536      305.85854     -142.67322     -16522.324    
   2084000   1.0819939      295.07915     -745.30587     -16567.423    
   2085000   1.0960607      297.74196      295.28005     -16577.341    
   2086000   1.0900103      292.9178      -49.690926     -16620.814    
   2087000   1.0782653      296.73451      373.79389     -16588.16     
   2088000   1.0673618      306.50754     -672.66921     -16523.498    
   2089000   1.0659863      299.83754     -643.1894      -16551.495    
   2090000   1.0790095      297.4967      -126.40406     -16563.898    
   2091000   1.0866705      297.98314      171.8155      -16509.971    
   2092000   1.0825551      296.2087      -608.51746     -16509.599    
   2093000   1.0784213      303.18877     -71.748527     -16605.155    
   2094000   1.0883284      292.64866      158.34308     -16626.489    
   2095000   1.0843531      296.6611       82.472335     -16598.255    
   2096000   1.056861       300.80198     -396.82863     -16529.492    
   2097000   1.0926202      296.14436      1273.1272     -16531.004    
   2098000   1.079733       299.34383     -751.97767     -16656.586    
   2099000   1.0712489      292.13435     -864.64682     -16621.731    
   2100000   1.0856726      301.3245       277.86041     -16625.305    
   2101000   1.0755064      294.33748      288.69227     -16578.649    
   2102000   1.0793065      302.46885      230.27716     -16490.886    
   2103000   1.0705637      296.03462     -603.84471     -16605.036    
   2104000   1.1010278      293.63938      651.48498     -16650.916    
   2105000   1.0746584      294.99836     -765.3362      -16612.565    
   2106000   1.089671       293.20795      422.66355     -16634.915    
   2107000   1.0698805      297.97015     -550.07296     -16577.683    
   2108000   1.0807354      290.38077      111.07886     -16758.356    
   2109000   1.0808077      300.88902     -405.97374     -16618.046    
   2110000   1.090705       295.7655      -44.819555     -16613.783    
   2111000   1.0803926      292.84734      169.09766     -16632.311    
   2112000   1.0811814      298.99651      284.46294     -16611.435    
   2113000   1.0833028      305.06836      820.42686     -16558.689    
   2114000   1.0850054      298.56455     -114.482       -16580.314    
   2115000   1.0868849      298.20656      142.58128     -16669.02     
   2116000   1.0941526      299.50059      200.01844     -16548.095    
   2117000   1.086547       304.51988      376.53283     -16531.855    
   2118000   1.0773845      295.91475      110.5887      -16711.375    
   2119000   1.0841432      296.23701      450.29595     -16684.319    
   2120000   1.0679331      302.84033     -998.13639     -16578.641    
   2121000   1.0812708      292.99187      216.34845     -16662.127    
   2122000   1.0699955      294.20637     -266.65257     -16711.342    
   2123000   1.0708177      306.53055     -227.31533     -16542.113    
   2124000   1.0796139      309.09279     -68.436542     -16495.96     
   2125000   1.0761293      293.30607     -460.34379     -16645.027    
   2126000   1.0758161      297.94064      227.39346     -16616.456    
   2127000   1.0613807      298.01191      20.773501     -16620.631    
   2128000   1.0821429      301.8049      -58.366971     -16526.956    
   2129000   1.0750109      284.17023      879.23896     -16687.071    
   2130000   1.0790318      304.5502       40.634877     -16534.881    
   2131000   1.0795891      305.00874      489.06469     -16588.505    
   2132000   1.0678283      306.30986      189.27083     -16538.377    
   2133000   1.0722353      298.18851      202.78324     -16652.925    
   2134000   1.0641499      301.26502      44.117257     -16602.483    
   2135000   1.0705067      303.23852     -78.940717     -16552.519    
   2136000   1.0692004      304.97292     -144.91697     -16576.64     
   2137000   1.0806756      280.76385      40.899865     -16716.611    
   2138000   1.0703583      298.34761      513.18347     -16610.236    
   2139000   1.0754155      298.68094      482.8235      -16603.012    
   2140000   1.076467       294.26865      337.79654     -16671.213    
   2141000   1.0695743      305.24707      6.5841681     -16602.578    
   2142000   1.0713967      290.85653      727.62517     -16731.377    
   2143000   1.0653022      300.26309      336.49046     -16606.992    
   2144000   1.0754124      293.85225      102.40395     -16732.441    
   2145000   1.0871318      297.34254     -358.841       -16589.007    
   2146000   1.0729345      304.75789     -727.34264     -16611.749    
   2147000   1.0801691      298.14473      97.777632     -16696.257    
   2148000   1.0719502      296.96224     -1286.727      -16687.455    
   2149000   1.0711195      291.76027     -352.00376     -16708.712    
   2150000   1.0853219      302.53415     -42.210126     -16547.684    
   2151000   1.0726901      297.47085      495.4011      -16641.052    
   2152000   1.076183       298.67877     -375.80921     -16720.069    
   2153000   1.0737994      296.19704     -77.171204     -16648.616    
   2154000   1.085859       292.98691      62.974402     -16754.148    
   2155000   1.0625568      297.94247     -1204.1308     -16624.086    
   2156000   1.0879714      286.56918      519.18882     -16689.166    
   2157000   1.0758945      300.72067     -163.15984     -16542.738    
   2158000   1.0865901      293.5774       605.3345      -16657.175    
   2159000   1.0774439      298.65453     -419.66299     -16656.638    
   2160000   1.0798867      299.78094     -562.97979     -16574.377    
   2161000   1.0817055      290.00411     -295.03421     -16723.812    
   2162000   1.0765925      285.34183      103.92986     -16597.336    
   2163000   1.0790104      294.44106      186.27192     -16654.35     
   2164000   1.080357       297.56616     -263.59384     -16572.618    
   2165000   1.0777416      294.0003      -754.33269     -16679.485    
   2166000   1.0836749      288.08648      239.37882     -16765.989    
   2167000   1.0633781      301.38372     -815.86266     -16642.282    
   2168000   1.0970787      306.12975      520.27503     -16711.38     
   2169000   1.0769459      292.94609     -534.67084     -16754.938    
   2170000   1.0846476      290.65813      450.8669      -16761.964    
   2171000   1.0788401      297.26196     -123.23092     -16674.185    
   2172000   1.0807264      294.04315     -288.86732     -16778.033    
   2173000   1.0699888      298.5595      -254.38411     -16637.607    
   2174000   1.0864316      306.30242      1164.7545     -16666.959    
   2175000   1.072677       298.14308     -1164.4156     -16746.971    
   2176000   1.0844528      290.42056      728.71335     -16864.043    
   2177000   1.0659423      297.6905      -523.62463     -16693.97     
   2178000   1.0770295      302.48755      629.08607     -16707.476    
   2179000   1.0729295      293.65247     -359.51561     -16804.737    
   2180000   1.0814546      292.76589      238.62392     -16815.51     
   2181000   1.0777445      300.42094     -789.5059      -16697.727    
   2182000   1.0863343      301.17024     -155.66235     -16725.682    
   2183000   1.0804647      295.28         189.30279     -16747.014    
   2184000   1.0823619      294.20788      419.27725     -16699.931    
   2185000   1.0622909      301.76901     -771.11668     -16713.115    
   2186000   1.0748971      301.90353      500.84382     -16682.198    
   2187000   1.0662423      294.6032      -18.343813     -16734.521    
   2188000   1.0711425      300.15025     -224.83974     -16649.803    
   2189000   1.0784492      286.79475     -690.20917     -16781.791    
   2190000   1.0767982      302.07494      44.489845     -16729.437    
   2191000   1.0814627      299.17331      1397.5134     -16735.857    
   2192000   1.0768959      297.17628     -231.81877     -16676.082    
   2193000   1.0776967      299.37672      57.356593     -16732.177    
   2194000   1.0857031      299.70422      33.08625      -16736.015    
   2195000   1.0792024      297.74563      260.05934     -16754.335    
   2196000   1.0818099      294.41578      809.79056     -16781.431    
   2197000   1.0807617      295.42449      762.79855     -16804.792    
   2198000   1.0789017      301.25814      386.49567     -16604.549    
   2199000   1.0834795      308.21641      274.2981      -16648.674    
   2200000   1.0874071      295.19721     -224.5869      -16768.021    
   2201000   1.0809812      299.90946     -450.16222     -16675.955    
   2202000   1.0851467      294.15392      102.28603     -16742.84     
   2203000   1.076811       296.97222     -27.062918     -16723.738    
   2204000   1.0823082      305.69376      680.26597     -16621.116    
   2205000   1.0894319      295.75636     -897.83622     -16731.323    
   2206000   1.1005477      291.10141     -6.1967639     -16874.219    
   2207000   1.0958522      293.38327     -101.23366     -16731.773    
   2208000   1.099845       297.73192      1466.1631     -16790.284    
   2209000   1.0756155      301.40811      111.77417     -16673.371    
   2210000   1.0833224      304.584        103.76284     -16704.51     
   2211000   1.0809145      292.03009      1377.5422     -16761.024    
   2212000   1.0644906      300.02214     -30.78868      -16773.051    
   2213000   1.0732933      301.54045     -358.78159     -16689.218    
   2214000   1.0720002      302.07895     -668.72727     -16671.511    
   2215000   1.0663276      309.61292      338.46494     -16638.786    
   2216000   1.0866648      286.31796      344.15281     -16878.425    
   2217000   1.0709314      304.93503      76.540224     -16580.505    
   2218000   1.0827335      294.61308      31.219365     -16774.025    
   2219000   1.0633884      291.01924      199.62547     -16779.446    
   2220000   1.0589482      291.2237      -307.6131      -16827.826    
   2221000   1.0874927      304.23361      573.48517     -16693.674    
   2222000   1.0695097      297.40005      164.69833     -16738.783    
   2223000   1.0832044      302.05656      244.61848     -16822.989    
   2224000   1.0767794      303.31192      24.096902     -16742.901    
   2225000   1.0785793      295.92454      453.16268     -16785.915    
   2226000   1.0700969      291.46113     -668.6274      -16846.745    
   2227000   1.081465       293.63138      714.23029     -16842.535    
   2228000   1.0697227      294.26517      161.98408     -16836.423    
   2229000   1.0733455      296.57551     -97.444033     -16809.892    
   2230000   1.0663379      304.15684     -92.970039     -16779.048    
   2231000   1.0732918      300.15792     -451.85338     -16757.151    
   2232000   1.0864512      291.80164     -9.3052567     -16870.728    
   2233000   1.0740577      291.99038     -1146.8569     -16785.052    
   2234000   1.0762538      299.86159     -157.63206     -16783.944    
   2235000   1.0816033      301.70488      797.22094     -16810.012    
   2236000   1.0774048      297.94235     -451.60792     -16778.518    
   2237000   1.0666517      296.5073      -768.57701     -16782.007    
   2238000   1.0730559      292.2625       388.51679     -16819.134    
   2239000   1.0770783      290.48252      217.56646     -16833.51     
   2240000   1.0766637      301.43184     -615.96963     -16791.255    
   2241000   1.0814244      301.9822      -336.9884      -16826.462    
   2242000   1.0706367      295.09368     -948.59033     -16781.935    
   2243000   1.090979       294.79512      718.52739     -16850.752    
   2244000   1.071472       293.75727      31.212326     -16841.339    
   2245000   1.075144       294.84259     -171.71524     -16825.408    
   2246000   1.0735596      309.01703      354.38806     -16766.44     
   2247000   1.0766176      303.27855      288.24569     -16765.516    
   2248000   1.0655411      294.93756     -56.133303     -16675.908    
   2249000   1.0775751      300.20297     -37.88475      -16788.549    
   2250000   1.0809699      297.07683     -134.6012      -16876.728    
   2251000   1.0705957      293.15546     -687.42641     -16818.964    
   2252000   1.0818292      304.17002     -537.35345     -16776.081    
   2253000   1.0751568      297.7188      -253.34698     -16787.755    
   2254000   1.0687882      295.28939     -118.01323     -16781.999    
   2255000   1.0618197      294.14035     -726.98087     -16743.493    
   2256000   1.0847069      299.28831      1097.6802     -16840.856    
   2257000   1.0689803      302.48032      485.03413     -16779.677    
   2258000   1.0656794      296.73177     -946.55764     -16821.585    
   2259000   1.0714068      297.49707     -530.85009     -16826.414    
   2260000   1.0754678      289.70734      1187.2649     -16782.187    
   2261000   1.0644641      300.6416      -361.10464     -16707.801    
   2262000   1.0842819      300.1386       502.62207     -16816.992    
   2263000   1.0792662      296.24318      1400.6919     -16801.104    
   2264000   1.0821237      296.53379     -101.03422     -16820.521    
   2265000   1.0732365      301.92645     -1513.1904     -16826.271    
   2266000   1.081185       300.70133      186.20055     -16826.954    
   2267000   1.0800369      296.74621      498.43713     -16803.72     
   2268000   1.0795527      306.03845      1189.6306     -16729.799    
   2269000   1.0739477      299.63614     -379.82037     -16802.671    
   2270000   1.0687357      294.66598      537.50629     -16852.957    
   2271000   1.0738928      303.21663     -87.988704     -16804.075    
   2272000   1.084232       304.44407      1049.0889     -16704.659    
   2273000   1.0808671      288.56502     -54.854069     -16835.372    
   2274000   1.0819826      307.67127     -359.97758     -16798.196    
   2275000   1.0946233      294.10218      679.55386     -16946.121    
   2276000   1.081702       309.70234      216.83144     -16715.02     
   2277000   1.0842569      300.27903      855.135       -16795.617    
   2278000   1.0822617      295.92971     -731.77659     -16788.838    
   2279000   1.0863388      296.30077      642.73949     -16868.836    
   2280000   1.0801357      300.23882     -344.18558     -16900.128    
   2281000   1.0825182      291.97837      543.54104     -16805.557    
   2282000   1.0735095      303.60661     -103.82331     -16842.725    
   2283000   1.0823655      298.27305      41.134185     -16848.94     
   2284000   1.0685703      303.23885     -1332.0569     -16829.911    
   2285000   1.0900358      305.30257     -94.671122     -16831.742    
   2286000   1.0825102      299.20216      408.79785     -16894.246    
   2287000   1.0859815      294.07364      219.76166     -16942.277    
   2288000   1.0858053      297.39473      330.81881     -16866.571    
   2289000   1.086794       292.45416      420.52514     -16932.528    
   2290000   1.0728729      295.55585      122.04694     -16927.737    
   2291000   1.0805966      308.34464      379.47786     -16863.521    
   2292000   1.0702885      290.7265      -846.96359     -16910.682    
   2293000   1.0785333      291.54801      49.311358     -16939.257    
   2294000   1.076904       299.31823      66.278526     -16842.822    
   2295000   1.0646602      293.27774     -789.685       -16956.346    
   2296000   1.0716033      307.56681      155.62815     -16894.971    
   2297000   1.0702166      283.10995      604.69662     -17069.006    
   2298000   1.0587867      302.60043     -1422.2229     -16874.234    
   2299000   1.0729535      296.14803     -109.88285     -16986.703    
   2300000   1.0789532      295.22669     -8.131625      -16948.601    
   2301000   1.0590424      295.33082     -1108.3309     -16872.763    
   2302000   1.0787923      294.25278      443.85328     -17020.334    
   2303000   1.0729617      298.23329      570.93148     -16913.092    
   2304000   1.0676947      297.73212     -463.1448      -16822.163    
   2305000   1.0878904      287.87675      103.17513     -17078.427    
   2306000   1.0766024      304.37438      473.47604     -16877.572    
   2307000   1.0749679      290.21588     -82.919059     -16998.223    
   2308000   1.0701291      310.19752      111.38093     -16825.097    
   2309000   1.0643399      294.40465     -45.778321     -16917.471    
   2310000   1.0759191      296.93689     -296.19202     -16907.151    
   2311000   1.0585631      291.69308     -1450.4389     -16973.535    
   2312000   1.0760505      295.08881     -434.91494     -16980.303    
   2313000   1.076136       297.847       -579.48535     -16917.223    
   2314000   1.0966844      299.15391      791.30224     -16914.647    
   2315000   1.0713366      299.66769     -992.34086     -16934.792    
   2316000   1.0869138      289.54737      34.862657     -16999.837    
   2317000   1.0758588      307.71832     -333.03413     -16851.875    
   2318000   1.0790584      293.56538      145.45213     -16907.354    
   2319000   1.089824       286.48711      484.27735     -16974.874    
   2320000   1.0658162      295.12304     -726.09925     -16881.801    
   2321000   1.0976193      304.40303      1505.1473     -16808.136    
   2322000   1.0748601      296.22874     -94.965895     -16871.684    
   2323000   1.0983215      292.3835       1035.7786     -17060.407    
   2324000   1.0777         294.64794     -1184.9349     -16979.162    
   2325000   1.0913055      301.52138      449.57282     -16977.765    
   2326000   1.0827107      304.07401      15.584052     -16917.264    
   2327000   1.093671       286.84072      1068.3269     -17087.424    
   2328000   1.0776273      297.98078     -484.09402     -16989.507    
   2329000   1.0791034      292.05921     -444.2091      -16993.419    
   2330000   1.0701387      303.78391     -195.59639     -16876.885    
   2331000   1.0687514      297.02204     -556.29997     -17013.764    
   2332000   1.0777787      302.71463      1166.0738     -16945.756    
   2333000   1.0728516      302.4201       402.64899     -16944.621    
   2334000   1.0753337      280.70266     -574.15755     -17084.921    
   2335000   1.0838775      284.34276      486.98746     -16939.8      
   2336000   1.0734482      306.96133     -22.289758     -16852.413    
   2337000   1.0839117      298.34703      848.62251     -16947.18     
   2338000   1.061648       293.40063     -589.56236     -16889.506    
   2339000   1.083869       294.04095     -22.08809      -17042.527    
   2340000   1.0776006      304.79309     -685.79152     -16981.679    
   2341000   1.0776368      295.97269     -840.68338     -16933.179    
   2342000   1.074707       297.95742     -3.4849116     -16855.476    
   2343000   1.0809403      293.02034     -559.30163     -17018.121    
   2344000   1.0736146      305.4541      -149.63263     -16921.456    
   2345000   1.0690314      301.76989     -1284.6088     -16890.557    
   2346000   1.073458       286.54012     -1093.1298     -17005.381    
   2347000   1.0705389      298.84653     -326.43268     -16906.16     
   2348000   1.0606415      306.61924      124.70041     -16885.925    
   2349000   1.0625847      298.27079     -642.68371     -16941.448    
   2350000   1.0580958      298.75562     -410.88748     -16890.722    
   2351000   1.0670518      298.95926      400.99973     -16948.768    
   2352000   1.0631007      307.60778      7.4925772     -16905.906    
   2353000   1.0720658      291.74305      163.33826     -16996.64     
   2354000   1.0659865      295.8317      -778.31758     -16904.383    
   2355000   1.0616631      290.61442     -633.05252     -16972.637    
   2356000   1.0821904      287.40785      744.97029     -17008.468    
   2357000   1.0661491      298.56985     -130.56725     -16944.206    
   2358000   1.0650094      298.36779     -211.31276     -16941.385    
   2359000   1.0656271      303.57999      442.355       -16950.139    
   2360000   1.0612104      303.52841     -514.45289     -16940.923    
   2361000   1.0772859      305.4057       539.61597     -16893.283    
   2362000   1.0673666      305.06044     -1036.199      -16908.124    
   2363000   1.0682505      298.57882      278.13458     -16950.577    
   2364000   1.073542       301.5319       40.835112     -17015.77     
   2365000   1.069579       307.37611      106.2053      -16915.788    
   2366000   1.0809237      302.88531      714.44637     -16947.655    
   2367000   1.0763968      294.32436      846.09712     -17057.794    
   2368000   1.0885584      292.62968      1162.9079     -17076.635    
   2369000   1.0682505      303.37387     -39.914241     -16917.63     
   2370000   1.0778301      301.98681      309.61933     -16987.688    
   2371000   1.0722554      287.05576     -1095.85       -17123.04     
   2372000   1.0672217      294.26686     -394.68876     -17027.213    
   2373000   1.0697766      290.14112      121.17326     -17120.272    
   2374000   1.0656586      306.27472     -170.93846     -16897.216    
   2375000   1.0835869      306.3213       227.82156     -16941.205    
   2376000   1.076989       300.17977     -343.74038     -17000.725    
   2377000   1.0733725      296.4613      -1566.8863     -16985.645    
   2378000   1.0926027      308.33891      548.29662     -16889.249    
   2379000   1.0646194      314.78781      442.10471     -16833.042    
   2380000   1.0683077      299.14315     -142.73518     -16972.455    
   2381000   1.0661199      301.41575      439.46417     -16953.425    
   2382000   1.0627166      296.75814     -313.92059     -16951.041    
   2383000   1.0658614      297.01846     -17.951095     -16979.902    
   2384000   1.0747937      297.92024      429.57356     -17015.108    
   2385000   1.0695564      297.75792      154.66948     -16908.925    
   2386000   1.0685768      293.73754     -85.298731     -17045.399    
   2387000   1.0759831      307.46644      444.00722     -16947.982    
   2388000   1.0668475      303.92591     -419.87365     -16928.933    
   2389000   1.0692741      297.12438     -434.24277     -17051.304    
   2390000   1.0731145      289.83019      451.55759     -16933.155    
   2391000   1.0732113      294.50477     -840.0687      -16980.67     
   2392000   1.0771398      294.3039      -562.17659     -17076.632    
   2393000   1.0620995      299.55216     -1182.3794     -16943.658    
   2394000   1.0725927      297.57095      13.537426     -17005.554    
   2395000   1.0594211      302.61974     -938.81118     -16970.254    
   2396000   1.0770953      297.55521     -344.10426     -16984.85     
   2397000   1.0696931      288.01978     -109.957       -17080.759    
   2398000   1.0721586      294.93342      78.083925     -16970.504    
   2399000   1.0755288      301.28585      390.2775      -17057.799    
   2400000   1.0692226      288.21019      657.96535     -17071.198    
   2401000   1.0687446      299.32173     -630.82996     -16959.85     
   2402000   1.0631774      288.90805     -259.47246     -17108.873    
   2403000   1.0767536      297.62377      60.032395     -17078.905    
   2404000   1.0684237      307.86065     -856.00554     -16945.22     
   2405000   1.0710553      286.13399      206.52309     -17070.889    
   2406000   1.0762666      301.83158     -846.63758     -17009.038    
   2407000   1.0748981      295.63327      21.494214     -17106.466    
   2408000   1.0807508      298.09131      108.42444     -17017.63     
   2409000   1.0766363      296.74571     -124.0476      -17073.204    
   2410000   1.0780899      301.23731      980.93583     -16965.915    
   2411000   1.0868854      302.94789      791.12528     -16993.586    
   2412000   1.0787935      300.25786     -438.58582     -16996.878    
   2413000   1.0788696      297.18278      454.53584     -16991.477    
   2414000   1.0807456      308.33126      574.4503      -17049.012    
   2415000   1.0694934      298.38125     -1137.3245     -17057.285    
   2416000   1.0760303      308.53224     -1385.1881     -16970.108    
   2417000   1.0786093      286.92336      348.98441     -17047.26     
   2418000   1.0827628      303.28321      74.657856     -17048.092    
   2419000   1.0880545      294.57531      843.47532     -17121.004    
   2420000   1.075238       289.7792      -785.32966     -17103.322    
   2421000   1.0790068      306.30844     -1093.0004     -16984.31     
   2422000   1.0796061      297.38402      409.15995     -17021.103    
   2423000   1.0703967      295.59199     -472.45582     -16999.078    
   2424000   1.0641329      305.40246     -467.32327     -16971.836    
   2425000   1.0680616      290.7575      -676.51671     -17142.225    
   2426000   1.0603856      298.3726      -605.61997     -17048.635    
   2427000   1.0629131      304.7647      -292.78688     -17023.503    
   2428000   1.0553223      298.40257     -1081.1682     -17081.636    
   2429000   1.0439774      299.2457      -317.29807     -17034.78     
   2430000   1.0655825      295.17014      251.01124     -17067.145    
   2431000   1.0554753      305.30503      375.86199     -16948.775    
   2432000   1.0587677      304.04246      121.93918     -17071.371    
   2433000   1.0594492      304.23616     -110.56961     -17057.407    
   2434000   1.0539814      296.22604     -607.49814     -17077.278    
   2435000   1.0630722      311.67118     -396.96792     -16978.549    
   2436000   1.0502833      306.4242      -600.05714     -16991.062    
   2437000   1.0741001      296.09925      417.69973     -17145.351    
   2438000   1.052797       292.49368     -744.48402     -17093.527    
   2439000   1.0683201      299.08699      262.38483     -17106.299    
   2440000   1.0589964      304.98477      154.24813     -17010.087    
   2441000   1.0660078      300.63987     -354.49398     -17062.254    
   2442000   1.0507106      280.07496     -320.71693     -17206.825    
   2443000   1.0827864      295.58854      785.02165     -17138.253    
   2444000   1.0605692      302.40397     -163.67345     -17127.513    
   2445000   1.070227       294.00938      521.20574     -17142.737    
   2446000   1.0695692      285.22994     -615.75608     -17202.526    
   2447000   1.077818       308.38666      337.70104     -17065.344    
   2448000   1.0758289      284.13609     -262.4418      -17229.303    
   2449000   1.076303       303.73482     -920.51031     -17045.433    
   2450000   1.0883372      296.84311      644.85873     -17173.502    
   2451000   1.06747        294.38479     -482.8538      -17100.104    
   2452000   1.0902473      302.73387      488.34499     -17093.515    
   2453000   1.0743273      303.28028     -1328.448      -17052.854    
   2454000   1.0827101      285.66631      1178.4273     -17155.109    
   2455000   1.0862128      297.18693      1170.0866     -17129.028    
   2456000   1.0669768      304.32846     -549.01966     -17066.108    
   2457000   1.0938778      300.08608      1157.5055     -17125.632    
   2458000   1.0629745      296.0457      -708.67613     -17116.436    
   2459000   1.0832045      308.32678      1156.0082     -17079.403    
   2460000   1.0617773      298.06142     -632.37741     -17057.773    
   2461000   1.068957       294.48482     -802.74473     -17161.151    
   2462000   1.0692576      291.16689      470.22534     -17229.736    
   2463000   1.0649556      280.28959     -101.54273     -17264.65     
   2464000   1.0689265      296.46251      15.017004     -17134.717    
   2465000   1.0693566      301.62455     -425.58639     -17124.894    
   2466000   1.0642368      299.52662      242.47667     -17158.688    
   2467000   1.0676347      298.71095      184.36816     -17110.661    
   2468000   1.0652488      307.32143     -249.41125     -17099.061    
   2469000   1.0727936      301.53738      103.81716     -17140.102    
   2470000   1.0736756      294.54242     -21.037939     -17192.513    
   2471000   1.0711246      294.27533      246.16285     -17159.165    
   2472000   1.0823693      299.04435     -11.079363     -17210.82     
   2473000   1.0761723      309.04727      791.29631     -17121.44     
   2474000   1.0683855      290.15293     -941.64699     -17182.444    
   2475000   1.0872287      293.27981      274.13571     -17201.979    
   2476000   1.0566457      297.4013      -943.75033     -17133.579    
   2477000   1.0877103      304.93395      1510.5777     -17153.887    
   2478000   1.0683017      302.9817       211.47793     -17143.62     
   2479000   1.0779671      301.50116      462.59294     -17116.587    
   2480000   1.0785262      294.13078     -309.68483     -17233.836    
   2481000   1.0692507      299.48988     -918.47588     -17128.741    
   2482000   1.0833414      303.52024      1169.0871     -17074.907    
   2483000   1.0725044      293.63677      744.13056     -17209.745    
   2484000   1.0710069      306.86525      594.64454     -17045.95     
   2485000   1.0741595      294.2593       6.6039343     -17200.889    
   2486000   1.0688565      301.07328     -498.45605     -17143.348    
   2487000   1.0619158      290.1541       148.3672      -17133.967    
   2488000   1.0741466      304.46761      346.39649     -17168.563    
   2489000   1.0630126      297.02796     -15.446509     -17092.797    
   2490000   1.0712921      299.92245      650.42238     -17142.456    
   2491000   1.0636889      288.23548      375.33256     -17123.727    
   2492000   1.0849859      291.67918      465.41719     -17114.387    
   2493000   1.0746331      296.56323      73.804198     -17149.742    
   2494000   1.0760462      311.32656      671.17143     -17039.708    
   2495000   1.0797038      305.78728      497.93208     -17125.157    
   2496000   1.0712476      296.89223     -689.1004      -17216.138    
   2497000   1.0838047      295.8858       744.06878     -17242.638    
   2498000   1.0880436      300.33229      208.42062     -17192.746    
   2499000   1.0830187      300.6484      -440.81011     -17191.191    
   2500000   1.0859493      307.12789     -57.161136     -17091.909    
   2501000   1.0880344      299.395        895.89101     -17134.753    
   2502000   1.0750048      294.43514     -1402.3601     -17226.244    
   2503000   1.0727052      297.1583       162.13704     -17188.527    
   2504000   1.0636575      309.77239     -710.35783     -17067.021    
   2505000   1.0711574      296.94367     -594.0673      -17189.324    
   2506000   1.0853226      301.38822      33.098493     -17170.811    
   2507000   1.0676438      294.10645      19.776595     -17083.8      
   2508000   1.0872577      303.93555      1415.3575     -17073.159    
   2509000   1.07129        305.66454     -279.86455     -17056.548    
   2510000   1.0836548      290.916        95.271853     -17233.178    
   2511000   1.0808707      307.90247     -454.64559     -17034.332    
   2512000   1.0845003      302.15393     -125.9402      -17231.629    
   2513000   1.0751733      295.75055     -785.19316     -17109.924    
   2514000   1.0862625      295.33805      512.07599     -17138.799    
   2515000   1.0777121      296.1659       467.0449      -17152.154    
   2516000   1.0951719      302.93936     -714.38447     -17228.308    
   2517000   1.0722914      300.14005     -270.81144     -17180.657    
   2518000   1.0907306      296.36156      629.26689     -17241.809    
   2519000   1.0771508      291.86585     -388.46223     -17214.744    
   2520000   1.078052       294.00323      394.5979      -17203.128    
   2521000   1.082935       305.31316      67.047536     -17199.158    
   2522000   1.0681344      291.88856     -411.11635     -17168.904    
   2523000   1.0814141      293.08419     -274.8284      -17259.952    
   2524000   1.0701877      288.96384     -914.8306      -17285.61     
   2525000   1.0768726      292.17734      464.43641     -17226.77     
   2526000   1.0730348      297.99248     -48.661163     -17191.548    
   2527000   1.0726374      290.4323      -232.07019     -17204.82     
   2528000   1.0630546      303.27066     -660.74435     -17116.635    
   2529000   1.082621       297.2185       791.56035     -17235.361    
   2530000   1.0611066      299.91377     -633.79284     -17140.52     
   2531000   1.0713999      298.16255      244.83605     -17201.733    
   2532000   1.0612627      293.07765     -611.66414     -17177.074    
   2533000   1.0740175      294.88158     -31.39683      -17187.36     
   2534000   1.0641321      300.2514      -47.183342     -17204.978    
   2535000   1.0673799      299.05049      142.06406     -17249.824    
   2536000   1.0698927      298.12335      37.377466     -17226.252    
   2537000   1.0686874      286.85078     -204.49837     -17317.223    
   2538000   1.0691703      290.0782      -885.36674     -17254.257    
   2539000   1.0781108      288.89284      223.42151     -17271.002    
   2540000   1.0702983      302.90812     -190.59379     -17270.079    
   2541000   1.0681005      301.5581       317.89693     -17202.681    
   2542000   1.0717375      298.38464     -280.23131     -17253.99     
   2543000   1.0672558      294.65229      274.12991     -17293.35     
   2544000   1.0710888      284.9895      -503.10239     -17380.191    
   2545000   1.0710129      296.47303      454.10402     -17236.893    
   2546000   1.0787241      293.27503      1065.2255     -17334.858    
   2547000   1.0723305      295.73307     -222.38641     -17246.013    
   2548000   1.0772529      291.08473      313.25996     -17318.529    
   2549000   1.0616746      298.57748     -1153.0574     -17218.357    
   2550000   1.0702542      297.4073      -203.37546     -17214.079    
   2551000   1.0718868      299.96984     -591.1759      -17235.521    
   2552000   1.0717646      297.7508       550.83601     -17191.636    
   2553000   1.0906795      304.83798      805.76976     -17077.801    
   2554000   1.0650592      291.13045     -288.36592     -17281.991    
   2555000   1.081481       298.30018      481.61512     -17238.459    
   2556000   1.0682733      301.29904     -1534.6428     -17099.854    
   2557000   1.0924396      291.88027      463.0102      -17258.284    
   2558000   1.0692973      304.20646      195.76743     -17193.322    
   2559000   1.0754149      303.58286      607.47657     -17184.255    
   2560000   1.0739002      301.76279      434.37307     -17209.56     
   2561000   1.078335       295.00834      380.74403     -17221.414    
   2562000   1.0743262      306.44052      260.17775     -17087.165    
   2563000   1.0689423      300.45428     -473.33409     -17154.601    
   2564000   1.0815397      293.1443       1563.4558     -17197.512    
   2565000   1.0851542      292.91541      589.99659     -17226.423    
   2566000   1.0707607      295.40402     -1026.4707     -17150.271    
   2567000   1.074677       287.79955     -298.93565     -17245.863    
   2568000   1.0771753      295.62161     -805.87658     -17148.816    
   2569000   1.0766639      292.26199     -497.31411     -17234.972    
   2570000   1.0727041      300.09105      396.10984     -17200.6      
   2571000   1.0778153      303.43598      198.69942     -17157.764    
   2572000   1.0655091      297.49627     -22.362764     -17241.047    
   2573000   1.0718083      292.70846      289.76742     -17234.575    
   2574000   1.0672105      299.20328      212.29979     -17203.209    
   2575000   1.0721368      305.89349      354.84302     -17177.839    
   2576000   1.0710416      299.80153     -217.15181     -17224.42     
   2577000   1.085118       301.01491      85.655314     -17261.646    
   2578000   1.0759457      292.05191      688.53022     -17253.092    
   2579000   1.0754985      303.1001       911.86388     -17189.442    
   2580000   1.0763716      298.73632      272.49738     -17193.398    
   2581000   1.0699739      297.62135     -68.726152     -17244.148    
   2582000   1.0653171      302.46199     -1192.1712     -17181.77     
   2583000   1.0716682      300.73918      475.80287     -17247.705    
   2584000   1.0630079      300.52021      455.70086     -17190.281    
   2585000   1.0812844      296.58619      576.98842     -17236.637    
   2586000   1.0619069      303.95606     -309.33031     -17195.213    
   2587000   1.0752189      293.08893      420.64439     -17346.993    
   2588000   1.0642166      302.36739     -333.65683     -17251.022    
   2589000   1.0679102      291.27763     -222.7928      -17327.492    
   2590000   1.0588696      297.3552      -546.92423     -17235.583    
   2591000   1.0821639      307.461        436.2081      -17210.718    
   2592000   1.0695753      290.61363     -634.61808     -17246.465    
   2593000   1.0811154      297.86491      204.69417     -17187.061    
   2594000   1.0730758      294.12079     -654.00614     -17269.765    
   2595000   1.089697       295.63143      546.80984     -17245.567    
   2596000   1.0754851      289.8009      -182.717       -17268.34     
   2597000   1.0586671      299.70369     -665.6905      -17176.628    
   2598000   1.0810079      296.54615     -73.421135     -17291.615    
   2599000   1.0586557      299.404       -1072.7062     -17162.395    
   2600000   1.0846703      296.54055      766.42434     -17303.456    
   2601000   1.0626778      308.57287     -644.91885     -17204.385    
   2602000   1.0762428      290.05423      221.24535     -17309.89     
   2603000   1.0710667      299.95068     -441.80173     -17289.204    
   2604000   1.0710533      293.01667     -312.70466     -17280.625    
   2605000   1.0715127      305.06092     -1032.6519     -17189.701    
   2606000   1.0645656      295.62931     -201.40975     -17264.482    
   2607000   1.0626342      300.52018      67.787916     -17227.449    
   2608000   1.066239       288.83787      604.02626     -17289.133    
   2609000   1.0663807      302.78964      4.792508      -17199.445    
   2610000   1.0665154      296.04611      233.19615     -17301.8      
   2611000   1.0688405      296.89391      165.79525     -17274.482    
   2612000   1.0676145      295.04563     -44.015425     -17310.231    
   2613000   1.0773976      300.41562      285.46283     -17216.276    
   2614000   1.0686367      298.86537     -357.5384      -17330.772    
   2615000   1.0734052      294.08339     -111.19823     -17316.979    
   2616000   1.0666724      293.53999      507.28439     -17272.844    
   2617000   1.065724       293.09076     -711.06679     -17301.844    
   2618000   1.0674324      304.95712     -128.5686      -17271.438    
   2619000   1.0723095      287.82929     -607.30368     -17381.616    
   2620000   1.0559566      298.1529      -366.10792     -17350.017    
   2621000   1.0607708      290.78838     -357.5647      -17329.421    
   2622000   1.062742       290.74751     -588.71991     -17387.249    
   2623000   1.0643967      302.88155     -225.34566     -17275.457    
   2624000   1.0578562      304.75637     -460.85187     -17257.831    
   2625000   1.0822832      284.89802      994.46013     -17372.42     
   2626000   1.0600802      299.19552     -557.2569      -17307.827    
   2627000   1.0777906      298.91797      1163.5458     -17247.533    
   2628000   1.0624764      299.67767     -1588.8363     -17342.127    
   2629000   1.0772932      300.67001      310.81414     -17277.072    
   2630000   1.0759499      299.02025     -531.06768     -17306.177    
   2631000   1.0789288      297.78555      936.32868     -17347.195    
   2632000   1.075328       287.81813     -36.921778     -17383.505    
   2633000   1.0730927      291.17455      904.55521     -17357.147    
   2634000   1.0700265      291.4294       649.60435     -17368.765    
   2635000   1.0621962      295.10069     -808.65794     -17328.611    
   2636000   1.0771719      287.37369      1736.2591     -17410.713    
   2637000   1.0552754      293.0545       124.33595     -17328.616    
   2638000   1.0805333      296.01697      1542.5724     -17350.211    
   2639000   1.0657302      301.60373     -719.37137     -17228.146    
   2640000   1.0621584      306.68965     -1035.791      -17239.312    
   2641000   1.0789974      299.84484      1200.3734     -17327.768    
   2642000   1.0592842      295.79425     -832.47365     -17268.801    
   2643000   1.068884       290.02449     -263.53644     -17378.169    
   2644000   1.0719706      302.57         726.06196     -17254.681    
   2645000   1.0556648      301.24501     -60.500242     -17289.085    
   2646000   1.064969       303.23256     -24.420484     -17253.62     
   2647000   1.061354       297.064       -373.07556     -17347.495    
   2648000   1.0661342      303.05584      360.31298     -17291.488    
   2649000   1.0746919      308.26138      1311.9913     -17236.686    
   2650000   1.0741258      298.14776      412.11984     -17340.808    
   2651000   1.0690606      306.07296      1552.4534     -17333.467    
   2652000   1.0733751      298.34348      729.27859     -17284.897    
   2653000   1.0677595      299.36657     -285.57253     -17382.623    
   2654000   1.0829197      303.95661      461.35134     -17366.547    
   2655000   1.0697597      301.36863     -328.59303     -17337.853    
   2656000   1.0719146      302.2108       536.09491     -17340.473    
   2657000   1.0698696      297.93938      400.03284     -17351.943    
   2658000   1.057364       288.23013     -1419.3339     -17381.938    
   2659000   1.0801143      284.33034      1001.4166     -17464.737    
   2660000   1.0658311      292.8456      -124.41735     -17400.205    
   2661000   1.0726032      302.54502      593.49202     -17379.804    
   2662000   1.0638919      286.69806     -1519.5635     -17434.171    
   2663000   1.0666857      296.6213      -1322.5655     -17381.767    
   2664000   1.0706355      293.53391      906.39129     -17426.058    
   2665000   1.0546652      300.91652     -410.22611     -17276.813    
   2666000   1.0712552      288.77215      642.00092     -17437.452    
   2667000   1.0508003      284.65085     -883.56486     -17379.856    
   2668000   1.0766465      308.37424      1539.9772     -17357.612    
   2669000   1.0602457      304.16315     -533.14883     -17353.946    
   2670000   1.063058       306.27706     -774.14841     -17245.576    
   2671000   1.0743005      296.77372      137.80762     -17367.364    
   2672000   1.0705286      304.62162     -682.81405     -17275.38     
   2673000   1.0716205      292.92793     -20.243167     -17392.11     
   2674000   1.0766686      300.04069      481.07416     -17373.171    
   2675000   1.0778248      301.04791      486.9369      -17315.244    
   2676000   1.0924232      289.93067      252.05314     -17463.819    
   2677000   1.078322       301.33006      495.72328     -17316.764    
   2678000   1.0883417      278.18699      643.78569     -17492.222    
   2679000   1.0692915      288.31903     -667.66567     -17396.138    
   2680000   1.0818254      295.23807      855.75882     -17464.771    
   2681000   1.0659537      309.98027     -213.93729     -17321.149    
   2682000   1.0841742      299.37855      1832.116      -17392.546    
   2683000   1.0757522      292.56683     -847.46654     -17483.969    
   2684000   1.0696706      290.74781      491.65559     -17376.475    
   2685000   1.0731826      304.35807     -72.326688     -17345.462    
   2686000   1.0616094      295.35353      335.98938     -17410.193    
   2687000   1.063783       293.00673     -556.77447     -17423.85     
   2688000   1.0639015      292.29797     -359.90221     -17423.296    
   2689000   1.0700626      287.62403      536.18092     -17520.739    
   2690000   1.0590428      299.77187      28.551268     -17393.961    
   2691000   1.0642458      287.86701      209.88247     -17532.479    
   2692000   1.0723545      291.89652     -253.86812     -17429.807    
   2693000   1.0573546      300.15363     -475.36715     -17400.835    
   2694000   1.072856       290.90302      354.64261     -17529.575    
   2695000   1.0600755      302.93698     -1082.6409     -17427.273    
   2696000   1.0559825      289.43922     -635.99931     -17482.732    
   2697000   1.0706678      297.17711      1078.6567     -17407.788    
   2698000   1.0494897      299.88276     -357.25219     -17324.409    
   2699000   1.0785719      300.21042      2099.4712     -17424.023    
   2700000   1.045623       303.27041     -1870.3741     -17378.107    
   2701000   1.0728426      301.6376       535.96188     -17388.873    
   2702000   1.0649248      304.08214      405.51536     -17333.131    
   2703000   1.0639141      301.34649     -36.059534     -17403.661    
   2704000   1.0779683      304.89043      583.52595     -17389.571    
   2705000   1.0663266      298.52234     -201.615       -17401.26     
   2706000   1.0716207      303.88835     -453.91406     -17382.383    
   2707000   1.075522       286.91321      60.968272     -17510.293    
   2708000   1.0706196      295.78186      93.041424     -17507.762    
   2709000   1.0682996      296.36721      12.790317     -17434.433    
   2710000   1.0745352      289.39378      587.89577     -17472.613    
   2711000   1.0622812      296.53975     -939.14274     -17458.855    
   2712000   1.0684341      301.89151     -524.94706     -17405.129    
   2713000   1.0780655      295.28446      788.92048     -17479.265    
   2714000   1.0618668      291.62326     -422.57879     -17430.932    
   2715000   1.0650906      296.2615      -480.99782     -17465.061    
   2716000   1.0680638      296.01159      1015.1074     -17452.941    
   2717000   1.0641126      299.7913       105.66585     -17494.321    
   2718000   1.0615162      303.8349      -13.99724      -17405.804    
   2719000   1.0622152      295.79488     -224.17744     -17490.879    
   2720000   1.0628824      297.18931     -351.46303     -17456.734    
   2721000   1.0643257      302.61195      521.80442     -17467.939    
   2722000   1.0687917      295.77048      515.54238     -17477.09     
   2723000   1.058084       299.97782     -80.549801     -17538.696    
   2724000   1.0628715      309.20302      400.41412     -17415.61     
   2725000   1.0654177      288.07275      787.93704     -17548.838    
   2726000   1.0569885      302.88286      118.1438      -17464.591    
   2727000   1.0544936      307.06868     -648.34806     -17377.666    
   2728000   1.0731617      306.21113      792.30724     -17456.842    
   2729000   1.057879       309.60789     -691.00661     -17419.058    
   2730000   1.0644088      292.04736      214.94104     -17484.136    
   2731000   1.0601534      298.55998      247.19614     -17446.447    
   2732000   1.0633073      308.84118      363.32627     -17427.352    
   2733000   1.0714336      301.15717     -23.187744     -17470.389    
   2734000   1.0574676      304.94748     -353.04554     -17501.03     
   2735000   1.0621249      307.25442      35.314109     -17412.868    
   2736000   1.054334       297.24998     -1605.2102     -17515.069    
   2737000   1.0606371      306.66973     -634.98546     -17481.545    
   2738000   1.0534026      293.58735     -33.731955     -17516.129    
   2739000   1.0590695      295.49168      1173.8482     -17568.215    
   2740000   1.0538606      292.90789     -1099.1234     -17580.495    
   2741000   1.0561947      294.01157      228.41906     -17571.821    
   2742000   1.0524119      283.23696     -1349.3251     -17572.7      
   2743000   1.0548985      303.84923      255.95805     -17488.115    
   2744000   1.0570099      294.43784      752.3327      -17510.186    
   2745000   1.0466024      287.10682     -1068.7263     -17554.202    
   2746000   1.0557133      297.35453      388.29983     -17490.772    
   2747000   1.054294       293.25461      517.78634     -17602.92     
   2748000   1.0535301      298.69407     -852.67095     -17471.046    
   2749000   1.0549597      298.3366      -235.86479     -17473.385    
   2750000   1.0610065      296.86792      697.42502     -17527.52     
   2751000   1.0546456      305.17225     -463.34003     -17469.35     
   2752000   1.06318        305.68183      194.66987     -17401.71     
   2753000   1.0606845      302.2089       661.09196     -17443.618    
   2754000   1.0554663      304.99651      179.42296     -17432.34     
   2755000   1.0578895      298.38153     -771.59886     -17504.279    
   2756000   1.0514412      296.78718      157.7299      -17488.82     
   2757000   1.0563201      292.10469     -981.28888     -17535.709    
   2758000   1.0583094      293.13788      297.26969     -17510.902    
   2759000   1.0550535      302.16133     -234.84029     -17488.464    
   2760000   1.0425058      303.12816     -652.70833     -17470.441    
   2761000   1.0611529      296.71053      863.58618     -17540.997    
   2762000   1.052114       308.54999     -185.10905     -17448.271    
   2763000   1.0553358      312.95982      688.1524      -17370.492    
   2764000   1.0550078      293.17346     -500.33788     -17515.6      
   2765000   1.0604297      302.17543      125.53124     -17434.538    
   2766000   1.0635121      303.33129      294.77854     -17487.415    
   2767000   1.0525876      302.43839      807.19378     -17496.079    
   2768000   1.067622       306.44113      786.74593     -17500.943    
   2769000   1.0622053      291.3502       555.84858     -17592.76     
   2770000   1.0611341      291.77597     -770.42974     -17540.21     
   2771000   1.0586633      287.62259     -752.49984     -17598.12     
   2772000   1.0708054      306.98403      916.29923     -17494.694    
   2773000   1.0573998      298.18657     -95.639284     -17478.778    
   2774000   1.0631207      293.88294     -380.5798      -17536.469    
   2775000   1.0604094      297.83313      3.4826039     -17476.469    
   2776000   1.0602587      302.93321     -12.924051     -17508.943    
   2777000   1.069062       290.96959      1042.5872     -17620.885    
   2778000   1.0574063      300.8882      -45.436608     -17480.521    
   2779000   1.052549       294.77826     -574.04365     -17512.269    
   2780000   1.0616549      291.01885     -190.36209     -17510.897    
   2781000   1.0485391      303.1436      -509.17383     -17515.656    
   2782000   1.0624641      294.08985      174.92948     -17647.346    
   2783000   1.0510887      302.13411     -619.28513     -17476.12     
   2784000   1.0595308      296.44859      299.24161     -17471.407    
   2785000   1.0589317      287.40619      371.98837     -17603.756    
   2786000   1.0616996      285.923        1017.1658     -17628.285    
   2787000   1.0533592      308.05669     -455.6284      -17506.823    
   2788000   1.0586921      302.58774      80.839171     -17549.342    
   2789000   1.0550418      298.98737      230.37916     -17513.552    
   2790000   1.060988       297.16662     -193.61999     -17548.003    
   2791000   1.0523188      288.68319      24.098879     -17572.385    
   2792000   1.0676666      297.44061      1194.7115     -17562.327    
   2793000   1.0491998      306.52082     -1496.369      -17425.419    
   2794000   1.0650867      296.06359      645.96511     -17541.685    
   2795000   1.0601878      300.14133     -232.36026     -17541.169    
   2796000   1.0551282      302.3293       341.74658     -17529.445    
   2797000   1.0636073      299.25233     -170.44451     -17561.586    
   2798000   1.0531998      304.29347      587.04456     -17531.068    
   2799000   1.0539957      284.95793     -334.1249      -17630.544    
   2800000   1.0589736      304.82158      1149.3818     -17516.504    
   2801000   1.0569421      299.06422      465.26632     -17552.716    
   2802000   1.0507059      296.27652     -894.77634     -17574.26     
   2803000   1.0536868      290.34211      143.80371     -17559.099    
   2804000   1.0524357      301.33787     -19.704233     -17520.525    
   2805000   1.0571726      304.17096     -86.196549     -17526.529    
   2806000   1.0532258      284.551        870.38351     -17629.805    
   2807000   1.0586022      289.4084       334.57843     -17587.796    
   2808000   1.0547161      297.02595      55.213902     -17537.081    
   2809000   1.0623354      300.08863     -620.32046     -17570.713    
   2810000   1.0445213      300.17163     -1029.8222     -17502.923    
   2811000   1.0699109      297.13694      952.39342     -17641.271    
   2812000   1.0536604      301.85552     -356.79158     -17529.231    
   2813000   1.0584704      300.11688     -866.0093      -17599.383    
   2814000   1.0634211      300.55647      697.2887      -17590.335    
   2815000   1.0603134      291.33722      55.414282     -17668.866    
   2816000   1.0651181      308.82726      432.16886     -17549.539    
   2817000   1.0503258      294.60163     -822.94394     -17565.764    
   2818000   1.0636712      307.82712      962.81412     -17539.408    
   2819000   1.047725       302.15951     -122.36366     -17568.09     
   2820000   1.0619172      292.48365      335.06492     -17677.519    
   2821000   1.053611       303.58482      522.08246     -17591.671    
   2822000   1.061182       293.24501      150.24969     -17688.355    
   2823000   1.0625205      301.3959       1023.3965     -17698.657    
   2824000   1.0445512      305.07689     -406.95303     -17556.462    
   2825000   1.062312       293.38942      1125.3073     -17646.458    
   2826000   1.0569262      298.52376     -152.99519     -17634.284    
   2827000   1.057515       302.11023     -502.82615     -17628.448    
   2828000   1.0537191      295.04614     -195.40547     -17636.484    
   2829000   1.0578921      307.66834      564.596       -17620.165    
   2830000   1.0586336      289.54959     -225.84004     -17677.035    
   2831000   1.0495414      299.41073     -737.58826     -17619.989    
   2832000   1.0625166      304.97644      70.393327     -17605.765    
   2833000   1.0545769      309.90137      412.29823     -17527.855    
   2834000   1.0578978      295.30385     -18.153141     -17683.799    
   2835000   1.0635254      293.98564      175.70409     -17670.96     
   2836000   1.0541331      295.57047     -897.15123     -17607.807    
   2837000   1.0599808      289.04277     -635.93177     -17730.167    
   2838000   1.0471254      296.59996     -593.96922     -17635.689    
   2839000   1.074732       307.18613      988.10806     -17618.784    
   2840000   1.0487023      301.40335     -592.8872      -17571.461    
   2841000   1.0580069      292.04958      437.25917     -17725.596    
   2842000   1.0616619      309.11214      773.49476     -17542.895    
   2843000   1.0459873      297.61555      22.238271     -17610.081    
   2844000   1.0700791      305.32756     -185.21588     -17566.967    
   2845000   1.0513508      305.70197     -677.12957     -17596.438    
   2846000   1.0457948      301.54253     -755.26473     -17580.212    
   2847000   1.0708424      299.22593      795.85495     -17644.307    
   2848000   1.0544618      299.82755     -684.96519     -17602.952    
   2849000   1.0603462      297.07178     -356.98475     -17615.966    
   2850000   1.0632684      304.43704     -72.891218     -17598.414    
   2851000   1.0565765      290.48043      124.3117      -17702.829    
   2852000   1.067796       294.80036      832.00045     -17709.425    
   2853000   1.0558194      297.69335     -868.13478     -17687.751    
   2854000   1.0573438      307.62592     -446.256       -17602.307    
   2855000   1.0593777      302.23753      380.031       -17631.048    
   2856000   1.0513135      300.26664      674.44203     -17603.474    
   2857000   1.0674818      307.4799       905.28297     -17633.297    
   2858000   1.0477555      287.64679     -375.07828     -17701.608    
   2859000   1.0539197      298.69218     -224.39047     -17565.735    
   2860000   1.0627291      302.27346      1304.1649     -17610.366    
   2861000   1.0516136      302.27355     -241.43064     -17631.259    
   2862000   1.0527839      295.6566      -96.290056     -17724.42     
   2863000   1.0569871      288.72903     -385.40946     -17742.264    
   2864000   1.0471845      302.2718       705.7728      -17628.585    
   2865000   1.0635616      295.51669      719.27969     -17671.28     
   2866000   1.0472898      289.40708     -1370.1729     -17710.385    
   2867000   1.0597769      303.21525      540.77672     -17685.959    
   2868000   1.0565407      300.42515      279.63787     -17655.636    
   2869000   1.0555974      297.98719     -658.11882     -17648.621    
   2870000   1.0660893      294.92092      254.19238     -17689.206    
   2871000   1.0528751      296.72773     -491.73476     -17668.229    
   2872000   1.0638431      291.21351      173.08056     -17752.557    
   2873000   1.0509641      299.59846     -312.4075      -17700.885    
   2874000   1.057817       292.1041      -164.29783     -17683.489    
   2875000   1.0618057      293.30291     -346.21771     -17749.054    
   2876000   1.0554674      297.56334      50.590632     -17673.265    
   2877000   1.0554621      293.47155     -214.07717     -17707.909    
   2878000   1.0569565      299.15484      677.06676     -17644.176    
   2879000   1.055972       287.4108      -899.19587     -17713.449    
   2880000   1.0535534      298.18914      576.50987     -17679.922    
   2881000   1.0566577      291.44537      13.251975     -17755.52     
   2882000   1.0528608      301.7871       173.65938     -17671.269    
   2883000   1.0597761      293.07945      388.22377     -17745.844    
   2884000   1.0532755      321.60546     -339.81282     -17555.073    
   2885000   1.0461155      305.43039     -929.86662     -17612.431    
   2886000   1.0558346      284.65922     -15.09672      -17739.838    
   2887000   1.0548232      296.79583      258.88118     -17716.932    
   2888000   1.0515753      304.12854     -532.64353     -17576.517    
   2889000   1.0545106      288.10092      86.427984     -17747.113    
   2890000   1.052485       304.88154      355.45722     -17674.154    
   2891000   1.0461776      297.19281     -578.18241     -17698.416    
   2892000   1.0585725      290.20586      288.82283     -17781.02     
   2893000   1.047827       287.5362      -350.56418     -17735.101    
   2894000   1.0579031      286.30385      921.95882     -17832.754    
   2895000   1.048194       297.23398      254.92146     -17673.108    
   2896000   1.0589127      298.83041      707.13577     -17749.776    
   2897000   1.0545094      301.52093      790.73503     -17665.387    
   2898000   1.0550847      287.61589      102.83255     -17724.617    
   2899000   1.0582904      297.33908      207.55353     -17740.446    
   2900000   1.0550997      306.6683       46.21051      -17651.827    
   2901000   1.0600313      301.05769      274.32643     -17720.401    
   2902000   1.0495701      306.40417     -677.8727      -17635.532    
   2903000   1.0638161      300.98124      392.15182     -17761.176    
   2904000   1.0543728      291.87127      319.39975     -17711.622    
   2905000   1.0657536      303.33144      88.013545     -17702.1      
   2906000   1.0530699      304.63876     -601.98254     -17660.382    
   2907000   1.057281       311.45305      165.04757     -17627.603    
   2908000   1.0634073      307.18244     -506.38234     -17658.543    
   2909000   1.0575322      290.84262     -604.82392     -17769.575    
   2910000   1.056501       297.85262     -32.620733     -17740.82     
   2911000   1.054257       294.65068     -1095.8833     -17739.54     
   2912000   1.0548138      289.49288      339.74679     -17758.206    
   2913000   1.0555963      302.17302      535.64229     -17697.556    
   2914000   1.0531884      290.60997     -194.77418     -17764.003    
   2915000   1.0539745      290.96919      322.39581     -17761.903    
   2916000   1.0513063      293.41772     -534.83209     -17782.936    
   2917000   1.0498477      300.32823      0.62527891    -17745.919    
   2918000   1.064159       296.58375      931.86623     -17767.279    
   2919000   1.0506251      300.02239      261.89752     -17723.664    
   2920000   1.0521324      300.3894      -543.71196     -17706.069    
   2921000   1.0576852      295.56554      738.66332     -17766.348    
   2922000   1.0526836      291.99748      283.75839     -17763.302    
   2923000   1.0420551      296.8624      -471.61917     -17713.775    
   2924000   1.0548769      294.04482      1033.2388     -17757.049    
   2925000   1.0553002      293.49261      166.65433     -17758.363    
   2926000   1.0457707      303.51272     -598.18672     -17711.795    
   2927000   1.0613118      298.52554     -122.00608     -17784.379    
   2928000   1.0509977      293.81172      12.064975     -17723.336    
   2929000   1.0480471      293.58714      1046.3705     -17799.895    
   2930000   1.0542857      294.57188     -383.98841     -17764.707    
   2931000   1.0455652      299.71898     -1069.0932     -17751.016    
   2932000   1.0528346      288.40983      1092.1564     -17798.661    
   2933000   1.0510202      298.03118     -272.12393     -17718.062    
   2934000   1.0495731      299.60548      1241.5416     -17755.109    
   2935000   1.0500523      305.58016      399.58983     -17671.953    
   2936000   1.044634       295.77953      361.87684     -17769.947    
   2937000   1.0542979      299.35421     -463.79289     -17765.309    
   2938000   1.0467787      283.07902     -707.86709     -17875.102    
   2939000   1.041778       296.27816     -1558.7141     -17737.795    
   2940000   1.0551822      292.52097      727.38305     -17822.348    
   2941000   1.0328098      304.75214     -902.21552     -17689.331    
   2942000   1.0621625      290.33306      1502.0621     -17817.19     
   2943000   1.0463982      298.27432     -335.97087     -17752.461    
   2944000   1.0462457      295.87948     -127.58788     -17755.787    
   2945000   1.0533413      305.51308      818.38675     -17709.253    
   2946000   1.0429903      298.31816     -353.66849     -17740.383    
   2947000   1.0521619      305.14496      721.62051     -17677.32     
   2948000   1.053454       302.75844      640.08272     -17745.08     
   2949000   1.0433566      298.26212      21.56324      -17754.018    
   2950000   1.057599       309.33914     -4.326367      -17741.514    
   2951000   1.0479124      308.93731     -562.95937     -17675.724    
   2952000   1.0474091      297.86055      118.20371     -17733.522    
   2953000   1.0457556      298.04455     -780.27523     -17781.462    
   2954000   1.0522838      288.91177     -402.32471     -17809.507    
   2955000   1.0484793      290.7424      -537.4352      -17852.816    
   2956000   1.051919       302.08498     -233.99295     -17745.513    
   2957000   1.0433221      294.13503     -1091.2174     -17773.153    
   2958000   1.0454077      294.64972     -750.96029     -17733.134    
   2959000   1.0455128      298.02986     -729.92312     -17676.51     
   2960000   1.0503081      304.76707     -339.59022     -17691.833    
   2961000   1.0444734      296.8713      -340.5914      -17757.202    
   2962000   1.0553065      295.50926      59.539283     -17791.705    
   2963000   1.0395094      307.60321      247.5062      -17654.66     
   2964000   1.0603213      287.5471       751.95712     -17826.28     
   2965000   1.0443982      291.1032      -1057.5421     -17786.369    
   2966000   1.0493368      293.94158      924.474       -17812.95     
   2967000   1.0557092      299.48943      918.58535     -17812.38     
   2968000   1.0383705      308.647        102.04071     -17683.277    
   2969000   1.0556037      294.89552      187.59912     -17817.847    
   2970000   1.0431226      300.35353     -228.01963     -17757.422    
   2971000   1.0431427      295.72015     -646.77409     -17728.592    
   2972000   1.0491324      299.28528      1032.875      -17780.343    
   2973000   1.0494504      302.20185     -333.91722     -17718.919    
   2974000   1.0431599      311.29877     -962.10235     -17673.472    
   2975000   1.0575409      295.65935      1049.3059     -17795.344    
   2976000   1.0352975      305.24874     -1146.141      -17691.537    
   2977000   1.0619671      309.09383      992.54731     -17678.516    
   2978000   1.0440149      299.77475     -31.207357     -17728.578    
   2979000   1.0486486      299.13372     -80.475959     -17745.133    
   2980000   1.0576829      298.9564       261.20357     -17793.728    
   2981000   1.0427231      294.04524     -129.58413     -17881.119    
   2982000   1.0555078      293.57721      736.02279     -17826.86     
   2983000   1.045908       288.11479      1192.6932     -17790.782    
   2984000   1.0473283      301.63979      78.214298     -17747.669    
   2985000   1.0562628      299.47068      975.90758     -17804.003    
   2986000   1.0364429      311.67528     -990.55781     -17726.423    
   2987000   1.0503141      298.81344      971.69307     -17778.471    
   2988000   1.0531454      302.66089      949.45203     -17775.839    
   2989000   1.0401816      297.08579     -713.90554     -17805.784    
   2990000   1.0494908      304.59285      376.36853     -17713.614    
   2991000   1.0494707      297.78188     -851.53201     -17821.204    
   2992000   1.0396341      302.04842     -1533.4495     -17830.333    
   2993000   1.0510566      299.4614       168.6436      -17794.771    
   2994000   1.0428621      293.28624      396.27235     -17854.998    
   2995000   1.03982        291.13506     -682.02902     -17846.099    
   2996000   1.0593342      295.49731      857.69916     -17820.457    
   2997000   1.0387177      284.43058     -456.75743     -17898.358    
   2998000   1.046503       296.91856      205.89633     -17877.549    
   2999000   1.0505146      297.80008      197.51346     -17836.633    
   3000000   1.0484944      292.80047      551.6336      -17860.069    
   3001000   1.0496483      298.35894      60.469699     -17857.431    
   3002000   1.0480876      298.63329      438.0448      -17822.662    
   3003000   1.0529678      303.24854      1032.8382     -17791.171    
   3004000   1.0423248      296.22769     -480.57711     -17784.077    
   3005000   1.052163       292.5222      -22.99472      -17846.997    
   3006000   1.0484521      305.949        856.22069     -17791.398    
   3007000   1.0443185      290.64431     -741.06497     -17857.903    
   3008000   1.053891       290.3085       428.18435     -17908.837    
   3009000   1.0472264      300.76324     -499.70063     -17832.264    
   3010000   1.0481052      297.52368      1555.0163     -17783.143    
   3011000   1.0535671      305.52175      1059.7845     -17798.581    
   3012000   1.0404079      285.63437     -575.07417     -17906.148    
   3013000   1.0451836      295.25194     -1209.6482     -17846.753    
   3014000   1.0497369      312.12084      325.0811      -17744.386    
   3015000   1.0449451      306.93417      191.92455     -17801.992    
   3016000   1.0477462      305.77025     -791.38559     -17769.162    
   3017000   1.0427786      295.1048      -253.7299      -17845.062    
   3018000   1.0503058      300.1577       1778.9301     -17809.242    
   3019000   1.0383847      292.91328     -902.03286     -17801.691    
   3020000   1.0586397      287.42264      1307.2154     -17913.799    
   3021000   1.0382306      296.32343      75.45481      -17826.533    
   3022000   1.0523705      304.31822     -257.85417     -17857.641    
   3023000   1.0453276      298.97186     -169.69546     -17847.717    
   3024000   1.0424123      303.51853     -147.76351     -17797.09     
   3025000   1.0506043      302.16893      524.46428     -17809.547    
   3026000   1.0427781      290.80735     -896.12358     -17863.843    
   3027000   1.0451603      296.73474     -756.33283     -17851.363    
   3028000   1.0455857      294.71627     -213.16886     -17831.107    
   3029000   1.0503364      302.7941      -555.42726     -17809.039    
   3030000   1.0466787      301.05719      654.92068     -17805.04     
   3031000   1.0507152      301.30195      488.34209     -17828.74     
   3032000   1.0479351      304.57309     -914.63743     -17771.368    
   3033000   1.0387868      296.22692     -304.75357     -17856.409    
   3034000   1.0585191      293.48109      715.32001     -17887.825    
   3035000   1.0394636      301.9688      -1417.1849     -17766.096    
   3036000   1.0464448      300.52404     -571.47098     -17813.289    
   3037000   1.0557479      293.14674      173.27326     -17883.781    
   3038000   1.0395547      306.79212     -200.14321     -17770.208    
   3039000   1.0620019      293.62812      1057.5618     -17913.825    
   3040000   1.0459884      309.00961     -914.56046     -17737.915    
   3041000   1.0507527      302.25518     -390.94741     -17788.509    
   3042000   1.0493009      293.48397     -83.308791     -17882.542    
   3043000   1.0598565      305.51992      1246.9157     -17830.724    
   3044000   1.0449472      300.10298     -778.6247      -17828.649    
   3045000   1.0498632      295.45695     -239.74172     -17874.905    
   3046000   1.0450977      290.74635     -442.395       -17822.129    
   3047000   1.04821        299.31983      1044.2903     -17832.473    
   3048000   1.0506454      297.55615      411.78325     -17781.228    
   3049000   1.0487184      296.99678     -176.08777     -17839.19     
   3050000   1.0409151      296.99236     -997.01273     -17788.759    
   3051000   1.0452042      303.84365      504.92889     -17767.493    
   3052000   1.0429603      295.28177     -1110.3743     -17844.751    
   3053000   1.0465431      302.64103     -779.96663     -17798.403    
   3054000   1.0470249      286.29624     -913.31514     -17936.562    
   3055000   1.0495168      297.6281       441.94299     -17839.433    
   3056000   1.0535617      290.00966     -448.93246     -17877.058    
   3057000   1.0437273      308.12759      493.0975      -17699.798    
   3058000   1.0557456      308.65867      1668.7868     -17783.449    
   3059000   1.0539542      303.45812     -197.82889     -17788.706    
   3060000   1.0450518      305.32716     -590.41302     -17803.434    
   3061000   1.0530038      309.61084     -750.09116     -17762.094    
   3062000   1.0546914      300.15498      532.94425     -17795.887    
   3063000   1.0537808      295.5703      -462.97706     -17829.67     
   3064000   1.0516805      297.87266      519.9314      -17804.347    
   3065000   1.0516943      290.4046      -177.42728     -17857.479    
   3066000   1.0569641      297.5617       1066.1277     -17862.119    
   3067000   1.0454752      302.93441      334.8418      -17744.241    
   3068000   1.056011       299.5933       112.35751     -17841.216    
   3069000   1.0435124      302.94548     -466.81806     -17777.294    
   3070000   1.0511303      301.17306     -232.42401     -17732.172    
   3071000   1.0540406      298.52565      1100.277      -17791.726    
   3072000   1.0446843      290.95534      397.57104     -17848.408    
   3073000   1.0466217      307.42556     -794.46387     -17747.523    
   3074000   1.0538083      297.92556     -11.474914     -17812.712    
   3075000   1.0430567      291.45533     -1005.8784     -17897.807    
   3076000   1.0518093      306.34445     -360.31253     -17731.457    
   3077000   1.0474002      313.43521      385.65041     -17665.87     
   3078000   1.0564277      294.91477      406.81735     -17894.766    
   3079000   1.0556662      295.46745     -176.17567     -17880.038    
   3080000   1.0527076      287.93885     -138.69237     -17902.315    
   3081000   1.0479942      301.8049      -1045.9889     -17795.941    
   3082000   1.0604262      297.76907      1221.3446     -17892.261    
   3083000   1.0466126      310.79488      251.89052     -17704.711    
   3084000   1.0492449      303.09361     -496.75195     -17817.502    
   3085000   1.0591226      293.42244      1534.4501     -17858.634    
   3086000   1.0421616      299.36098     -435.06353     -17814.001    
   3087000   1.0554317      297.38663      197.60879     -17829.919    
   3088000   1.0542187      290.70399     -134.83809     -17910.525    
   3089000   1.0434258      298.98453     -552.7962      -17824.766    
   3090000   1.0594865      308.48479      209.70801     -17826.501    
   3091000   1.0483012      304.89356      1651.4968     -17777.748    
   3092000   1.0543781      297.22517      227.79051     -17862.284    
   3093000   1.0465772      309.85524     -541.95442     -17723.398    
   3094000   1.0528998      297.3529       533.84511     -17799.905    
   3095000   1.0505412      291.25774      87.773094     -17875.083    
   3096000   1.0490167      302.98013     -324.16039     -17746.256    
   3097000   1.0512664      301.08595      391.63551     -17797.25     
   3098000   1.0456787      289.92703      324.59462     -17907.688    
   3099000   1.0463563      293.7906      -867.92631     -17872.324    
   3100000   1.0481853      296.56493     -216.70662     -17847.008    
   3101000   1.0456147      302.64735     -67.39395      -17832.847    
   3102000   1.0449847      292.84235      8.971641      -17900.336    
   3103000   1.0491628      304.53675      469.55625     -17792.144    
   3104000   1.0438434      307.99847     -143.49761     -17828.788    
   3105000   1.0457562      295.27116      155.52886     -17894.709    
   3106000   1.0402999      307.55997     -800.42017     -17773.933    
   3107000   1.0503641      312.74887      379.73178     -17744.647    
   3108000   1.0449608      292.53594      607.28413     -17884.17     
   3109000   1.0461705      303.90739     -72.121169     -17844.199    
   3110000   1.0552451      309.88865      1503.8608     -17796.248    
   3111000   1.0381156      299.73083     -901.98939     -17770.007    
   3112000   1.050754       301.22594     -185.75178     -17803.718    
   3113000   1.0449987      289.04874     -1431.8023     -17926.485    
   3114000   1.0476263      298.29945      182.16476     -17853.616    
   3115000   1.053288       293.15696      1020.0691     -17887.254    
   3116000   1.0468271      296.37336     -290.83111     -17826.462    
   3117000   1.0459969      301.53188      357.21302     -17826.635    
   3118000   1.045792       303.25675      1032.7929     -17830.977    
   3119000   1.0447981      297.00882     -94.900596     -17844.945    
   3120000   1.0367226      302.65287     -1065.7796     -17817.991    
   3121000   1.0493101      295.49628     -108.32286     -17866.074    
   3122000   1.0425279      294.56223     -1201.6469     -17857.878    
   3123000   1.0407587      302.4437      -1966.261      -17816.941    
   3124000   1.0543422      302.48349     -83.13179      -17860.288    
   3125000   1.036197       301.39029     -134.05901     -17795.007    
   3126000   1.0477776      291.66412      163.83943     -17897.721    
   3127000   1.0478698      299.1502       34.146286     -17803.04     
   3128000   1.0391821      290.27627      39.931743     -17857.363    
   3129000   1.0449412      298.13005      83.842371     -17871.295    
   3130000   1.049133       297.69524      1745.4733     -17872.822    
   3131000   1.03876        293.06244     -416.20109     -17867.995    
   3132000   1.0516538      300.98106      1027.9559     -17846.289    
   3133000   1.0383462      298.48028     -782.76455     -17863.397    
   3134000   1.0423304      292.72403     -760.46132     -17871.232    
   3135000   1.0451134      301.78493     -792.4167      -17869.437    
   3136000   1.0450029      293.68934      705.13928     -17856.901    
   3137000   1.0456925      294.13084     -371.5158      -17904.83     
   3138000   1.0445848      301.54471      316.95681     -17838.256    
   3139000   1.0463409      298.50741      388.23446     -17873.893    
   3140000   1.0425972      300.24626      1306.0695     -17883.506    
   3141000   1.0456663      288.05153      550.97117     -17934.938    
   3142000   1.0398365      300.0614       366.717       -17809.777    
   3143000   1.0458653      288.51337     -486.87552     -17905.43     
   3144000   1.0408203      301.15825     -964.36986     -17828.758    
   3145000   1.0450352      288.23127      494.61464     -17865.983    
   3146000   1.0466944      294.57393      546.86101     -17907.481    
   3147000   1.0428945      294.97487     -318.97487     -17849.575    
   3148000   1.0443968      288.14006      632.5765      -17984.982    
   3149000   1.0425622      302.04125     -364.3513      -17833.216    
   3150000   1.0405076      293.54134     -556.28614     -17846.98     
   3151000   1.0448554      306.58079     -559.65594     -17756.061    
   3152000   1.0475106      301.26546      716.23949     -17837.619    
   3153000   1.047865       297.3792       2.8643893     -17870.791    
   3154000   1.0412607      289.82422     -427.57139     -17863.776    
   3155000   1.0403118      301.34737     -1.5220668     -17833.743    
   3156000   1.0504087      295.79314      2082.7585     -17879.751    
   3157000   1.0400666      300.00675      317.40519     -17839.994    
   3158000   1.0407947      288.866        552.33487     -17912.151    
   3159000   1.0469884      289.23907      138.90944     -17920.526    
   3160000   1.0368492      294.00176     -852.15767     -17822.028    
   3161000   1.0472572      306.70132      486.9492      -17791.146    
   3162000   1.046685       302.17804      757.23083     -17834.269    
   3163000   1.037908       286.18402     -1243.0999     -17941.47     
   3164000   1.0444415      290.4164       724.33113     -17909.809    
   3165000   1.0426172      301.87084      337.88396     -17871.272    
   3166000   1.0339086      298.33328     -1599.201      -17815.142    
   3167000   1.0467685      292.14829      427.55497     -17878.407    
   3168000   1.0370452      300.21594     -394.42801     -17837.165    
   3169000   1.037746       299.18469     -1728.5807     -17822.013    
   3170000   1.0460649      298.46923      27.811532     -17839.574    
   3171000   1.0404336      302.03436      224.54946     -17800.713    
   3172000   1.040582       287.03637     -459.75915     -17930.839    
   3173000   1.0488319      304.35607     -434.32176     -17826.045    
   3174000   1.0376958      306.15097     -23.476536     -17797.715    
   3175000   1.0484915      287.25764     -371.8918      -17921.366    
   3176000   1.0357         293.98249     -1645.668      -17887.232    
   3177000   1.0438416      292.28757     -471.56068     -17901.873    
   3178000   1.0484731      302.48372      303.38308     -17818.811    
   3179000   1.0414314      296.16459      561.08838     -17895.731    
   3180000   1.0497396      288.21701      351.46701     -17902.643    
   3181000   1.0415149      297.57853     -943.59121     -17867.466    
   3182000   1.0325843      290.71728     -203.52779     -17911.027    
   3183000   1.0508648      300.06048     -180.55949     -17860.768    
   3184000   1.0421648      303.6269      -324.81163     -17846.084    
   3185000   1.0431502      300.50059     -448.85243     -17860.36     
   3186000   1.0358252      302.09613     -1423.4112     -17858.501    
   3187000   1.0433508      298.92812      990.11133     -17886.048    
   3188000   1.0435517      306.53689      793.82753     -17784.822    
   3189000   1.0372415      297.42424     -472.48795     -17871.012    
   3190000   1.0410671      288.62655     -119.56007     -17965.747    
   3191000   1.0403863      298.12108     -437.53548     -17880.891    
   3192000   1.0451396      294.38919      740.83428     -17932.496    
   3193000   1.0373658      299.246       -266.14033     -17875.41     
   3194000   1.0487525      299.4102       199.81782     -17879.251    
   3195000   1.0337075      306.40649     -948.07035     -17820.618    
   3196000   1.0442201      297.20087      510.93062     -17894.782    
   3197000   1.0432396      307.66644      1257.6898     -17835.57     
   3198000   1.0411643      304.30107     -433.96728     -17824.712    
   3199000   1.0457416      297.12348      369.61739     -17894.122    
   3200000   1.0440871      295.73398      75.111494     -17905.203    
   3201000   1.037487       291.82644     -791.41885     -17920.995    
   3202000   1.044652       302.24109     -107.01635     -17896.921    
   3203000   1.050542       305.50603     -271.93839     -17848.212    
   3204000   1.0361828      301.41006     -595.95456     -17801.205    
   3205000   1.0529796      294.37614      76.685534     -17915.586    
   3206000   1.0400299      296.61816     -209.09448     -17916.69     
   3207000   1.0354475      308.14681     -92.383504     -17806.572    
   3208000   1.0524499      311.26349     -78.654691     -17796.392    
   3209000   1.0357498      295.07475     -1255.8685     -17900.537    
   3210000   1.0487318      294.48634     -704.39261     -17906.198    
   3211000   1.0472362      289.22857      472.66917     -17929.451    
   3212000   1.0441562      309.38577     -338.86109     -17820.971    
   3213000   1.0386588      311.96706     -1009.8285     -17763.597    
   3214000   1.0501297      307.73976      105.07061     -17854.756    
   3215000   1.039446       284.25954     -1103.8172     -18046.404    
   3216000   1.0351144      298.00912     -727.42255     -17885.006    
   3217000   1.0574047      303.13338      194.01507     -17880.029    
   3218000   1.036864       290.19674     -762.37945     -17920.069    
   3219000   1.0453714      289.99306      68.898719     -17962.146    
   3220000   1.041425       298.02432      765.55834     -17918.986    
   3221000   1.0352361      293.9066      -1364.8467     -17885.996    
   3222000   1.0416154      294.05369      406.18267     -17952.012    
   3223000   1.0450537      294.57462     -226.65108     -17941.359    
   3224000   1.0357407      306.34959     -118.78882     -17850.338    
   3225000   1.046478       299.23103     -305.12678     -17904.728    
   3226000   1.0360271      305.11282     -631.77171     -17824.264    
   3227000   1.0354843      303.55388     -768.65814     -17801.399    
   3228000   1.0452624      299.41795      710.98456     -17906.171    
   3229000   1.0355282      304.13649     -452.89537     -17875.097    
   3230000   1.0385834      307.89445     -706.724       -17799.396    
   3231000   1.0375228      293.38878      75.533176     -17916.845    
   3232000   1.0320204      293.79199     -1448.256      -17906.963    
   3233000   1.042232       306.28984      71.92103      -17839.821    
   3234000   1.0404219      301.31654      290.7896      -17866.648    
   3235000   1.0343057      293.95832     -329.96734     -17927.095    
   3236000   1.0451814      295.63668      1017.6443     -17890.411    
   3237000   1.0277547      303.14264     -1104.3986     -17851.528    
   3238000   1.0374197      298.89983     -73.679191     -17875.283    
   3239000   1.0339768      292.65248     -366.99057     -17883.164    
   3240000   1.0354475      295.42222      427.92449     -17891.562    
   3241000   1.0406548      287.87571      1615.6808     -17925.676    
   3242000   1.0381716      302.18269     -457.60005     -17855.376    
   3243000   1.0382023      301.25371      368.50474     -17868.763    
   3244000   1.0276475      293.8456      -446.04436     -17873.123    
   3245000   1.0460648      297.5452       1376.3385     -17893.952    
   3246000   1.0328955      299.79612     -955.2929      -17852.923    
   3247000   1.0350481      304.23752      21.54872      -17855.555    
   3248000   1.0384813      300.98325      236.40997     -17841.32     
   3249000   1.0323177      294.08796     -624.9152      -17907.8      
   3250000   1.037617       294.48885     -490.39661     -17885.343    
   3251000   1.0338649      306.11893     -104.16314     -17788.974    
   3252000   1.0427589      299.72784      680.96618     -17849.78     
   3253000   1.0395261      296.97574      1187.1404     -17880.345    
   3254000   1.0253987      300.81071     -503.78723     -17847.429    
   3255000   1.0457501      297.03756      637.32197     -17908.868    
   3256000   1.0349946      310.19117     -124.1478      -17840.277    
   3257000   1.0312804      299.05515     -726.45168     -17875.577    
   3258000   1.041975       310.63375      1048.7023     -17854.972    
   3259000   1.0368855      308.90491      849.54981     -17847.413    
   3260000   1.0349553      294.40903     -425.70014     -17927.928    
   3261000   1.0395595      296.27429      1083.0477     -17936.196    
   3262000   1.0337679      293.62083     -757.5572      -17918.374    
   3263000   1.040128       308.77488     -264.2389      -17833.014    
   3264000   1.0337247      293.00303     -641.8807      -17911.442    
   3265000   1.0399391      300.0282       1096.5432     -17822.51     
   3266000   1.0333223      297.58393     -44.769206     -17942.666    
   3267000   1.0410834      296.16725     -91.73194      -17954.488    
   3268000   1.0413044      310.17103      436.92958     -17855.451    
   3269000   1.0365503      301.52674     -379.63978     -17874.65     
   3270000   1.0431677      295.66303      441.24345     -17916.216    
   3271000   1.039789       301.76078      522.8892      -17843.478    
   3272000   1.0438892      305.07631      899.81133     -17826.881    
   3273000   1.0304243      294.23064     -880.45874     -17875.465    
   3274000   1.0464738      298.06669      277.44227     -17899.094    
   3275000   1.0389545      298.40152      437.45695     -17917.096    
   3276000   1.0413669      300.90751      481.73196     -17893.636    
   3277000   1.040752       302.88696     -134.12385     -17862.69     
   3278000   1.028111       313.22767     -1507.2196     -17796.01     
   3279000   1.0437897      303.98619     -19.995368     -17867.865    
   3280000   1.0422243      283.50228     -192.70307     -18017.034    
   3281000   1.0334981      280.85775     -924.09565     -17973.221    
   3282000   1.0374095      300.35515      114.93731     -17806.693    
   3283000   1.0416189      305.87455     -144.42557     -17803.218    
   3284000   1.0361149      297.75743     -223.53319     -17901.928    
   3285000   1.0416429      300.56378      709.23894     -17915.941    
   3286000   1.0423214      297.63102      324.40407     -17863.735    
   3287000   1.0439379      298.54255      499.10017     -17839.41     
   3288000   1.0416824      280.84736     -1218.7981     -18060.557    
   3289000   1.0322403      306.79576     -854.4191      -17785.031    
   3290000   1.0494765      305.22846      157.41339     -17898.788    
   3291000   1.0260937      298.81468     -1789.536      -17908.159    
   3292000   1.0486737      306.61677      1356.7995     -17863.52     
   3293000   1.0503798      288.61962      450.74096     -17964.007    
   3294000   1.0269904      298.35827     -972.23644     -17868.019    
   3295000   1.0537257      304.63774      1744.0263     -17902.726    
   3296000   1.0348447      293.4066      -1467.5076     -17934.039    
   3297000   1.0409604      290.92766     -288.4016      -17965.132    
   3298000   1.041834       290.27443     -423.62663     -17971.014    
   3299000   1.0337923      300.50927     -1060.6403     -17846.64     
   3300000   1.0506449      310.72247      513.41735     -17844.061    
   3301000   1.0277161      294.72833     -487.73317     -17894.042    
   3302000   1.0419709      300.35591     -253.70758     -17920.123    
   3303000   1.0483693      299.21755      826.06994     -17937.463    
   3304000   1.0262714      297.81807     -1833.3276     -17852.725    
   3305000   1.0502026      292.31802      801.4384      -18008.874    
   3306000   1.033629       295.97173     -912.32646     -17936.959    
   3307000   1.0365601      293.97817     -635.58391     -17980.77     
   3308000   1.0420772      295.09531      1040.3934     -17964.134    
   3309000   1.0359048      302.84865     -149.59872     -17893.556    
   3310000   1.0294549      300.14138     -461.07752     -17857.584    
   3311000   1.0412565      308.87098     -267.08044     -17905.27     
   3312000   1.0345393      297.45142      486.57321     -17910.171    
   3313000   1.041033       306.563        103.26207     -17861.637    
   3314000   1.0384454      291.605        30.494926     -17962.299    
   3315000   1.0372245      289.08971     -891.07695     -18027.052    
   3316000   1.03796        291.01945     -663.09896     -17951.014    
   3317000   1.0431311      295.02312      137.84898     -17993.613    
   3318000   1.0347436      301.70693      1354.4914     -17890.321    
   3319000   1.046331       299.28411      344.02248     -17945.717    
   3320000   1.0360793      309.89736      149.77309     -17859.687    
   3321000   1.0446332      302.33287      1085.8678     -17962.418    
   3322000   1.0360986      296.35128     -476.25818     -17957.198    
   3323000   1.030437       296.55992     -1115.3585     -17913.563    
   3324000   1.0471597      290.36502      410.04092     -18039.192    
   3325000   1.0320382      298.86086     -12.50966      -17895.358    
   3326000   1.0320265      295.48489     -649.50814     -17927.876    
   3327000   1.0389783      291.99379      131.36914     -18034.012    
   3328000   1.0328541      293.35865     -461.36892     -17969.497    
   3329000   1.0350249      305.23165     -198.88215     -17913.247    
   3330000   1.0340175      307.88926      545.35758     -17859.944    
   3331000   1.0366241      286.98398      496.41889     -17969.901    
   3332000   1.0343615      303.3878      -872.81313     -17910.684    
   3333000   1.0287674      297.53674     -421.55582     -17901.369    
   3334000   1.0334177      308.63673     -286.30612     -17847.616    
   3335000   1.0365531      294.36548     -113.85654     -17933.459    
   3336000   1.0318279      306.97218     -795.36687     -17865.983    
   3337000   1.0317656      295.73247     -735.27485     -17962.597    
   3338000   1.0381015      288.95111      1232.6675     -18005.201    
   3339000   1.0337988      305.94931     -491.06284     -17916.033    
   3340000   1.0208809      292.04956     -1262.9783     -17974.221    
   3341000   1.0479625      302.80663      2291.5295     -17928.474    
   3342000   1.0287156      295.04106     -436.68261     -17936.723    
   3343000   1.0307565      294.4828      -579.87449     -17952.306    
   3344000   1.037423       307.93027     -133.44458     -17885.573    
   3345000   1.0291536      296.28979      241.54294     -17891.93     
   3346000   1.0423297      310.44597      341.41326     -17859.487    
   3347000   1.0359165      295.37133     -155.28839     -17928.578    
   3348000   1.0319448      280.90537      222.26038     -18096.363    
   3349000   1.0422887      307.45542      908.21885     -17892.865    
   3350000   1.0276845      304.83654     -999.92322     -17864.548    
   3351000   1.0354061      291.75337      221.47751     -17961.995    
   3352000   1.036786       293.77733      437.17348     -17994.959    
   3353000   1.0256983      293.13239     -276.62834     -17961.412    
   3354000   1.0380716      304.56726     -518.98568     -17951.369    
   3355000   1.0340175      294.13872     -382.64575     -17990.948    
   3356000   1.0319454      294.48035     -690.31637     -17972.225    
   3357000   1.0403365      296.11691      89.032719     -18003.073    
   3358000   1.0326154      297.80142      717.73936     -17952.522    
   3359000   1.0379219      295.49874     -390.07025     -18009.806    
   3360000   1.0342558      291.02821      1000.4369     -18015.128    
   3361000   1.0369026      296.40811      320.59661     -17959.883    
   3362000   1.0374252      297.96643      334.90419     -17923.437    
   3363000   1.0355987      287.9817      -475.93108     -18025.896    
   3364000   1.0382661      301.90755      488.77276     -17923.677    
   3365000   1.0405674      294.40563      491.34099     -17991.369    
   3366000   1.0309456      303.93402     -277.38223     -17899.611    
   3367000   1.0467424      299.91001      344.73201     -17914.372    
   3368000   1.0423616      304.49164     -45.738215     -17936.543    
   3369000   1.0370965      299.17525     -400.14423     -17932.633    
   3370000   1.0382804      299.15366     -540.10863     -17941.059    
   3371000   1.0355442      293.26457      319.31946     -17986.737    
   3372000   1.0403824      294.21782      147.40107     -18040.406    
   3373000   1.0364908      298.46738      421.56168     -17943.665    
   3374000   1.0357263      302.0299       341.17575     -17924.295    
   3375000   1.0467031      291.12024      1509.9355     -17981.968    
   3376000   1.0279968      300.65853     -787.6463      -17920.263    
   3377000   1.0317386      289.58108     -1529.9826     -17994.767    
   3378000   1.0506952      298.44988      1899.2511     -17975.868    
   3379000   1.024034       300.72365     -1006.1057     -17907.792    
   3380000   1.0448315      298.828        1732.8842     -17965.373    
   3381000   1.0418868      303.13748      122.93989     -17933.931    
   3382000   1.0233475      304.18968     -1559.377      -17879.927    
   3383000   1.0466177      292.02508      182.55446     -18001.365    
   3384000   1.0320104      296.99865     -1253.165      -17947.868    
   3385000   1.0376625      298.93842      273.90063     -17944.17     
   3386000   1.0452497      305.84505      909.87324     -17889.474    
   3387000   1.0314323      289.26233     -109.91381     -18010.761    
   3388000   1.0292942      282.47308     -802.69972     -18088.14     
   3389000   1.0445615      293.20763      1113.1619     -18031.52     
   3390000   1.0351577      292.90311     -425.43759     -17978.618    
   3391000   1.0367937      295.43559     -812.73761     -17956.691    
   3392000   1.0409779      290.87681      353.77678     -18022.445    
   3393000   1.0323844      291.31851     -656.38648     -17987.093    
   3394000   1.0412606      294.02317      262.82328     -18003.008    
   3395000   1.03481        303.73411     -147.17081     -17925.815    
   3396000   1.040681       296.90669      460.84046     -17988.713    
   3397000   1.0354188      302.50598      289.99537     -17958.962    
   3398000   1.0446302      306.04033      1037.3735     -17895.702    
   3399000   1.0423289      295.04645      652.28855     -17978.82     
   3400000   1.0391884      298.39195     -69.347952     -17950.34     
   3401000   1.0424082      300.41217      752.46356     -17965.758    
   3402000   1.0353353      299.21218      383.37464     -17946.305    
   3403000   1.0366402      308.60865      196.08662     -17895.747    
   3404000   1.0418734      289.97877      275.64386     -18019.056    
   3405000   1.0330657      294.97898      858.69483     -17959.151    
   3406000   1.0407291      305.07535      501.77342     -17913.49     
   3407000   1.045368       294.2102       1105.3433     -18009.336    
   3408000   1.0346079      297.41692     -1056.3612     -17954.087    
   3409000   1.0393919      306.85372      177.0413      -17956.995    
   3410000   1.047886       287.54864      1047.4075     -18052.888    
   3411000   1.0333761      300.62356     -861.9108      -17963.38     
   3412000   1.0328003      297.84887     -1258.1454     -17990.187    
   3413000   1.0492602      291.5162       986.72089     -18033.401    
   3414000   1.0320025      290.95281     -713.3551      -18029.751    
   3415000   1.0454188      288.44086     -426.18763     -18036.705    
   3416000   1.0407263      295.47608     -728.02849     -17989.621    
   3417000   1.0335681      298.03915     -882.28506     -17939.94     
   3418000   1.051183       296.51949      1367.9096     -18005.198    
   3419000   1.0344043      290.69834      233.9375      -18015.898    
   3420000   1.0439636      286.35893      852.6802      -18063.637    
   3421000   1.0418365      304.58812      1767.4189     -17965.013    
   3422000   1.0306847      295.57505     -346.81233     -17981.697    
   3423000   1.039752       294.8669       371.25994     -18006.299    
   3424000   1.0428274      294.38119      431.2047      -18047.9      
   3425000   1.0342613      291.82707     -723.76796     -18000.105    
   3426000   1.0448415      309.43701      542.26336     -17897.802    
   3427000   1.0381155      302.15738      1268.5659     -17915.581    
   3428000   1.0358693      299.41332     -287.4888      -17975.05     
   3429000   1.0436211      299.65404      1106.9694     -18000.464    
   3430000   1.0407035      289.42386     -251.07029     -18037.045    
   3431000   1.0360229      302.82092     -16.902768     -17982.855    
   3432000   1.040692       298.01792     -867.32357     -18004.943    
   3433000   1.0396901      296.6936      -371.38933     -18001.168    
   3434000   1.0449477      287.36449      635.49996     -18078.261    
   3435000   1.0390605      299.41465      1088.6384     -18008.558    
   3436000   1.0306435      298.21        -745.16058     -17988.6      
   3437000   1.0459395      305.78067      475.19095     -17970.221    
   3438000   1.0335751      297.59985     -345.42117     -17965.391    
   3439000   1.0413129      300.3203       346.37616     -18002.004    
   3440000   1.0400629      294.29297      265.67886     -18021.35     
   3441000   1.0346405      288.60445     -898.83293     -18080.133    
   3442000   1.0312002      301.08683     -146.59132     -17956.649    
   3443000   1.0403141      299.10379      1296.6526     -17965.858    
   3444000   1.0337374      301.96269      618.35959     -17993.068    
   3445000   1.0354234      290.11018     -773.29938     -18021.547    
   3446000   1.0360142      290.33668     -1243.0725     -18027.368    
   3447000   1.0467731      290.90931      742.79694     -17978.408    
   3448000   1.0394949      303.72265      1093.821      -17924.956    
   3449000   1.0357318      296.32154     -677.30017     -18005.659    
   3450000   1.0413024      294.6848      -897.00781     -17991.296    
   3451000   1.0459609      295.64541      264.77357     -17991.493    
   3452000   1.035628       293.26471      106.29103     -17996.167    
   3453000   1.0393325      287.97358     -835.91926     -18004.371    
   3454000   1.0387356      311.7239      -0.6305649     -17907.02     
   3455000   1.0372607      296.4551       1226.3033     -17984.576    
   3456000   1.0442138      293.85536      525.79173     -18079.539    
   3457000   1.0393596      296.06857     -351.0949      -18006.019    
   3458000   1.0376259      293.70701     -635.62616     -18001.297    
   3459000   1.0387462      310.57341      1128.5716     -17951.218    
   3460000   1.0390143      294.03579      749.75765     -18038.77     
   3461000   1.0358856      286.64939     -445.92846     -18063.564    
   3462000   1.039903       302.14297      296.78247     -17970.318    
   3463000   1.0425142      302.59958      743.62386     -17972.285    
   3464000   1.0389674      300.57834     -128.43065     -17959.693    
   3465000   1.0392544      307.43915     -207.58857     -17916.161    
   3466000   1.0333743      304.80903     -472.46933     -17939.828    
   3467000   1.0428422      293.9427       589.08519     -18031.668    
   3468000   1.0346333      307.548       -730.03473     -17947.077    
   3469000   1.0303392      299.98944     -250.64705     -17954.598    
   3470000   1.0450762      295.36114      1320.5775     -18020.918    
   3471000   1.0349969      290.91157     -1227.1827     -18006.334    
   3472000   1.0372415      292.91412      728.85893     -18044.462    
   3473000   1.0382772      301.5339      -261.56648     -17983.16     
   3474000   1.0381672      302.16283      3.1800359     -17970.43     
   3475000   1.0416632      291.19167     -389.03345     -18047.73     
   3476000   1.038584       287.90746     -252.49655     -18084.961    
   3477000   1.0358497      300.71724     -305.06713     -17939.431    
   3478000   1.0436537      316.31977      665.27728     -17881.629    
   3479000   1.0396422      299.31485      296.16024     -17973.617    
   3480000   1.0337824      297.52853      478.17975     -17970.562    
   3481000   1.0518415      295.32536      1664.7028     -18029.813    
   3482000   1.036664       297.00439      174.94725     -18025.666    
   3483000   1.034874       303.4065       101.94673     -17910.265    
   3484000   1.0481913      308.70075      157.68982     -17974.448    
   3485000   1.0307628      293.1944      -1530.0959     -18050.22     
   3486000   1.0468103      302.25753      935.25284     -18006.407    
   3487000   1.0387631      296.06576     -210.38203     -18022.183    
   3488000   1.0263593      295.39895     -1578.3455     -18027.575    
   3489000   1.0485835      304.90956      226.1235      -17993.627    
   3490000   1.0372731      304.62623      566.70522     -17959.097    
   3491000   1.0302778      290.25345     -1293.1525     -18050.262    
   3492000   1.0451892      300.18996      197.23453     -17985.636    
   3493000   1.0321471      300.71274     -973.73528     -18022.203    
   3494000   1.0307359      290.74949     -1095.1882     -18038.212    
   3495000   1.0413805      304.77812      1217.7722     -17988.154    
   3496000   1.0335929      293.24684      184.36494     -18032.437    
   3497000   1.0339654      303.28636     -1182.6535     -17963.911    
   3498000   1.0413383      299.90023      693.17125     -17982.833    
   3499000   1.0425267      300.5942       654.20504     -18015.335    
   3500000   1.0370058      292.09335      119.72265     -18006.805    
   3501000   1.0345629      298.17078     -108.24905     -18012.123    
   3502000   1.0477833      289.8526       1145.955      -18095.593    
   3503000   1.0351117      293.89409     -364.3785      -18039.242    
   3504000   1.0267312      303.43363     -1722.5469     -17915.205    
   3505000   1.0526078      294.10136      212.10047     -18074.48     
   3506000   1.0276621      297.06734     -628.92946     -17966.531    
   3507000   1.038623       304.96979      208.55575     -17978.136    
   3508000   1.0396256      298.1471      -823.05176     -18004.676    
   3509000   1.0362074      301.00636      491.07678     -17962.864    
   3510000   1.042347       297.26557      895.67699     -17986.924    
   3511000   1.0355229      295.51582     -452.16925     -18000.626    
   3512000   1.0315559      299.2007       4.975798      -17994.277    
   3513000   1.041037       294.68034      508.50673     -18045.777    
   3514000   1.0343768      296.43751     -11.668253     -17987.549    
   3515000   1.0339196      286.38008     -635.72195     -18089.177    
   3516000   1.0440394      298.01101      312.802       -17997.148    
   3517000   1.039838       296.83315      456.04469     -17989.357    
   3518000   1.0358092      282.43058     -405.18109     -18091.949    
   3519000   1.0420718      295.95199      558.65726     -18024.113    
   3520000   1.0339302      305.05292     -979.93054     -17930.52     
   3521000   1.0352574      311.8409       616.08023     -17909.847    
   3522000   1.0419095      296.58857      226.73044     -18034.71     
   3523000   1.0422381      294.07695      620.61297     -17973.871    
   3524000   1.0296336      291.22938     -373.68424     -18030.223    
   3525000   1.0446912      289.93854      383.98165     -18040.357    
   3526000   1.0409315      293.62052      1059.6723     -18051.39     
   3527000   1.0345384      303.10494     -191.48871     -17955.031    
   3528000   1.0413958      296.86636     -1286.6064     -17991.833    
   3529000   1.0344956      293.93147      12.53366      -18025.426    
   3530000   1.0417715      296.66843      1122.2532     -18015.428    
   3531000   1.0323129      307.25152     -576.44807     -17942.069    
   3532000   1.0406157      308.27673      979.03179     -17947.115    
   3533000   1.0348716      302.38822     -172.59375     -17970.98     
   3534000   1.0383268      292.93887      1003.4071     -18042.563    
   3535000   1.0437482      284.391        499.8217      -18128.695    
   3536000   1.0332507      292.9329      -556.62416     -18048.164    
   3537000   1.0423389      295.54963     -44.867562     -18015.458    
   3538000   1.037901       299.21205     -102.15088     -18014.232    
   3539000   1.0391335      305.32413      762.64575     -18008.924    
   3540000   1.0391234      289.883        393.025       -18083.378    
   3541000   1.0364963      291.00291      244.48445     -18072.372    
   3542000   1.0345652      310.95877     -649.71554     -17930.261    
   3543000   1.0442442      297.74185      514.36761     -18051.309    
   3544000   1.0360688      312.62227      51.974989     -17902.471    
   3545000   1.0424752      305.47689      255.84924     -17957.603    
   3546000   1.0415668      298.8944       463.1195      -18037.276    
   3547000   1.0355839      290.94331     -372.77565     -18054.23     
   3548000   1.0420943      293.16629     -215.3181      -18090.12     
   3549000   1.0405989      300.24276      1128.6231     -17988.898    
   3550000   1.0281127      290.10962     -592.49655     -18083.797    
   3551000   1.0430982      292.86114      1268.9086     -18070.828    
   3552000   1.0366513      309.23398     -1908.446      -17922.754    
   3553000   1.0392225      290.16881     -199.88497     -18099.285    
   3554000   1.0404394      291.59307     -137.54093     -18056.97     
   3555000   1.0384822      298.60608      9.6139683     -18004.774    
   3556000   1.0411043      288.38145     -914.74211     -18090.964    
   3557000   1.0360895      296.07843     -751.76179     -18004.483    
   3558000   1.046468       305.97748      1034.0056     -17979.313    
   3559000   1.0440669      288.88766      1035.0593     -18075.824    
   3560000   1.0359905      297.39853     -1102.9706     -18002.158    
   3561000   1.0411349      289.6445       87.310216     -18078.646    
   3562000   1.0410334      306.57344      218.1263      -17966.801    
   3563000   1.0299032      309.55022     -595.88335     -17943.572    
   3564000   1.0398241      316.2863      -126.05493     -17902.501    
   3565000   1.0337588      302.89962     -186.86854     -17998.987    
   3566000   1.0343152      297.11865     -29.617981     -18040.455    
   3567000   1.043506       302.49709      998.99372     -18018.802    
   3568000   1.0344632      297.37166      296.33764     -18042.252    
   3569000   1.0307982      295.89857     -832.91596     -18057.852    
   3570000   1.0482396      295.62998      455.84926     -18038.727    
   3571000   1.0272419      295.94931     -771.59977     -18024.216    
   3572000   1.0413723      307.06482      767.56179     -17989.23     
   3573000   1.0430741      302.68554      709.94621     -18009.981    
   3574000   1.0216734      305.55723     -1177.2632     -17978.399    
   3575000   1.0485414      301.76751      392.69583     -18007.993    
   3576000   1.0352328      298.61663      1496.5615     -18032.306    
   3577000   1.0270479      299.13241     -2129.7426     -18035.306    
   3578000   1.0436195      302.08511      733.09994     -18015.935    
   3579000   1.0352081      303.9222       1379.2035     -17992.019    
   3580000   1.0335511      275.79763     -709.97078     -18154.414    
   3581000   1.0455424      310.91446     -215.82282     -17995.666    
   3582000   1.0285452      307.84177     -465.39286     -17957.119    
   3583000   1.0379602      300.36129      618.7977      -18056.256    
   3584000   1.0445057      296.2796       339.83993     -18073.078    
   3585000   1.0274738      289.60143     -610.25328     -18056.571    
   3586000   1.0450191      303.18763      1660.0892     -18058.315    
   3587000   1.0346498      290.87564     -430.65244     -18093.982    
   3588000   1.033489       286.82638      429.84581     -18107.796    
   3589000   1.0401209      304.93028      644.2446      -18066.303    
   3590000   1.0359562      302.25466     -818.32052     -18054.024    
   3591000   1.0343575      296.8764      -212.50357     -18040.15     
   3592000   1.0371884      294.06571      379.86729     -18090.423    
   3593000   1.034201       303.90372     -547.51204     -17969.522    
   3594000   1.0330027      292.20941     -197.83152     -18055.498    
   3595000   1.0371981      302.11516     -538.28821     -17971.75     
   3596000   1.0397575      303.49088      864.99306     -18006.339    
   3597000   1.0359901      301.70565      151.91948     -17991.75     
   3598000   1.0220787      305.5721      -934.13901     -17971.228    
   3599000   1.0483449      305.73544      74.377878     -18037.875    
   3600000   1.0281941      299.88157     -407.2162      -18016.512    
   3601000   1.03191        302.86132      195.94644     -17964.759    
   3602000   1.0454365      307.11233      1023.0023     -17972.059    
   3603000   1.0347261      293.50815     -406.50148     -18107.138    
   3604000   1.0341086      301.19343     -152.42273     -18033.395    
   3605000   1.0384804      291.81094      775.59002     -18076.035    
   3606000   1.0368893      285.77682      684.08886     -18164.43     
   3607000   1.0341378      297.65388     -1486.7102     -18048.177    
   3608000   1.0371937      309.68916      708.56716     -17973.6      
   3609000   1.0421787      292.92836      327.50084     -18079.881    
   3610000   1.0357186      292.36901      185.08699     -18099.329    
   3611000   1.0317913      294.64357     -696.72427     -18111.3      
   3612000   1.0393526      292.21839     -472.48484     -18097.391    
   3613000   1.0370184      290.97798     -356.38466     -18116.746    
   3614000   1.0289137      288.76851     -88.181536     -18088.562    
   3615000   1.0458775      301.65188      744.78876     -18050.258    
   3616000   1.03032        291.94481     -1027.0303     -18087.969    
   3617000   1.0330991      299.03066     -627.70774     -18013.892    
   3618000   1.0373883      292.82501     -202.23634     -18096.095    
   3619000   1.0324602      299.88048      482.64108     -18032.543    
   3620000   1.0392752      311.6952       1432.3851     -17973.505    
   3621000   1.0386724      292.03558      540.82395     -18106.996    
   3622000   1.0383984      300.30201      479.50066     -18024.978    
   3623000   1.0364848      303.81717      711.81185     -18043.883    
   3624000   1.0325051      294.20099      920.46969     -18084.388    
   3625000   1.0374945      302.614       -473.23648     -18037.475    
   3626000   1.0357427      296.86466     -476.12133     -18054.305    
   3627000   1.0331692      296.97781     -474.17621     -18067.223    
   3628000   1.0366216      293.89555      550.28532     -18083.662    
   3629000   1.034261       302.69279      342.6164      -18029.336    
   3630000   1.0368013      305.53067      1421.7718     -17993.431    
   3631000   1.0368002      304.31534      709.11625     -18019.914    
   3632000   1.0309302      289.04996     -1223.5065     -18117.169    
   3633000   1.0313426      296.09484     -1015.8857     -18071.524    
   3634000   1.0333242      293.16307      95.036776     -18094.341    
   3635000   1.040942       300.23247      314.79012     -18023.52     
   3636000   1.0290143      310.23747     -614.1769      -17977.162    
   3637000   1.035708       293.4104       145.55176     -18100.582    
   3638000   1.0385432      290.93108     -173.70883     -18146.001    
   3639000   1.0270312      305.7873      -845.94338     -18008.63     
   3640000   1.0357027      299.28486      572.3214      -18048.403    
   3641000   1.0424228      303.37176      805.7622      -18040.895    
   3642000   1.027591       302.0645       747.80716     -18042.261    
   3643000   1.039482       299.77578      375.91331     -18049.65     
   3644000   1.0381151      305.91699      550.02116     -18057.221    
   3645000   1.0305647      305.08374     -97.702462     -18028.162    
   3646000   1.0360459      295.08501      529.6016      -18082.482    
   3647000   1.0334451      304.85427      257.27719     -17994.803    
   3648000   1.0380038      293.98285      1417.9839     -18130.575    
   3649000   1.0355801      304.47989      608.86734     -18023.16     
   3650000   1.0286803      308.94857      169.43542     -18007.335    
   3651000   1.0398701      302.99585     -260.45947     -18036.666    
   3652000   1.0287144      295.10443     -107.93662     -18102.439    
   3653000   1.0315036      282.67813      65.057049     -18151.435    
   3654000   1.0299784      295.14173      31.930633     -18092.69     
   3655000   1.0385082      296.17817      348.65034     -18094.524    
   3656000   1.0294672      293.96827     -898.21979     -18154.567    
   3657000   1.0347188      298.38103      62.558142     -18060.529    
   3658000   1.0319908      305.49168      140.51689     -18022.748    
   3659000   1.035916       290.89737      653.20414     -18112.999    
   3660000   1.0310942      286.568       -814.05112     -18105.64     
   3661000   1.0274056      296.6562      -399.69542     -18099.431    
   3662000   1.0412813      294.21552      843.11534     -18064.047    
   3663000   1.0360816      296.09368      118.43648     -18081.826    
   3664000   1.0281467      284.97936     -289.50605     -18151.059    
   3665000   1.0383024      301.19776      978.7427      -18055.36     
   3666000   1.0290855      303.48665     -575.01341     -18031.629    
   3667000   1.0360902      305.12526     -345.08619     -18051.009    
   3668000   1.0292279      273.72926     -835.08767     -18221.625    
   3669000   1.0344849      299.90987     -812.54786     -18077.799    
   3670000   1.0330637      307.84157     -171.77787     -18015.674    
   3671000   1.0305094      292.45351      311.46105     -18064.184    
   3672000   1.0349438      299.43346     -1357.5895     -18050.424    
   3673000   1.0221746      297.16251     -626.90063     -18051.407    
   3674000   1.0367413      303.39724     -143.6469      -18125.885    
   3675000   1.0334698      300.572       -225.53581     -18081.362    
   3676000   1.0325326      308.48037      794.25423     -18004.537    
   3677000   1.0373243      300.02654      696.5186      -18085.939    
   3678000   1.0297951      299.67044     -945.79633     -18095.388    
   3679000   1.0377054      321.2235       448.37533     -17925.804    
   3680000   1.0345598      294.6524       1459.0837     -18125.698    
   3681000   1.0326886      297.56641      395.56613     -18106.512    
   3682000   1.0314287      301.66114      304.85834     -18023.5      
   3683000   1.040552       294.80596      5.045077      -18108.005    
   3684000   1.0253731      302.55989     -1538.614      -18014.126    
   3685000   1.0437006      295.53523      758.42796     -18098.905    
   3686000   1.0302419      298.52584      384.47554     -18074.284    
   3687000   1.0341238      296.87362     -256.58789     -18074.935    
   3688000   1.0342114      298.95249     -778.36407     -18076.311    
   3689000   1.0339847      298.32783     -851.3981      -18091.02     
   3690000   1.0342662      287.25469      214.14407     -18174.692    
   3691000   1.033654       291.34888     -302.18425     -18114.69     
   3692000   1.0401871      289.71495     -63.818195     -18139.715    
   3693000   1.027567       297.87385     -969.69352     -18038.07     
   3694000   1.0313426      301.01588      73.076844     -18061.006    
   3695000   1.0376568      299.62267      1280.7217     -18087.635    
   3696000   1.0336537      288.43948      247.62443     -18136.538    
   3697000   1.0285696      306.9723      -1094.406      -17974.753    
   3698000   1.0411797      300.37385      605.10565     -18052.425    
   3699000   1.0358486      317.64092      1206.2039     -17969.836    
   3700000   1.0301946      296.76169     -366.9246      -18088.744    
   3701000   1.0285626      288.34875     -870.16145     -18141.164    
   3702000   1.0314222      293.18846      89.242324     -18101.114    
   3703000   1.0390123      293.50766      780.77431     -18132.187    
   3704000   1.0264403      299.64959     -764.55487     -18089.258    
   3705000   1.0386868      272.25014      145.62299     -18284.737    
   3706000   1.0339228      296.91814     -1185.5787     -18085.757    
   3707000   1.0226446      305.32926     -1442.1297     -18016.416    
   3708000   1.0392255      295.28254     -568.27342     -18088.299    
   3709000   1.0291705      303.09014     -570.96646     -18076.363    
   3710000   1.0214291      299.3625      -751.64417     -18062.953    
   3711000   1.0446997      299.13781      1418.6611     -18070.618    
   3712000   1.030323       286.37073      63.689938     -18168.989    
   3713000   1.0268242      306.67327     -1485.5899     -18021.392    
   3714000   1.0455629      292.42734      1674.9092     -18151.901    
   3715000   1.0265644      298.54623      245.74078     -18066.36     
   3716000   1.0322589      302.80085     -178.48929     -18034.979    
   3717000   1.0424827      287.69502      2112.3801     -18198.736    
   3718000   1.032268       285.17962      23.838939     -18191.043    
   3719000   1.0233599      290.94933     -1378.2275     -18116.304    
   3720000   1.0383623      305.98289     -22.907869     -18078.766    
   3721000   1.0311997      289.56102     -924.90293     -18158.179    
   3722000   1.027137       299.84283     -549.66197     -18033.631    
   3723000   1.0361707      286.34146     -90.761343     -18133.941    
   3724000   1.0323076      286.33584     -1037.7737     -18182.101    
   3725000   1.0285811      302.91747      165.23552     -18031.617    
   3726000   1.0344899      295.38073      495.61344     -18077.733    
   3727000   1.035494       294.04873      696.79459     -18118.609    
   3728000   1.0314999      297.13278     -18.105043     -18065.551    
   3729000   1.0340056      292.08597     -142.69512     -18159.374    
   3730000   1.0356958      287.36366     -425.57452     -18141.131    
   3731000   1.028015       306.71082     -854.26689     -18018.614    
   3732000   1.0279645      302.3522      -1171.3965     -18008.708    
   3733000   1.033919       287.03195     -754.20354     -18148.117    
   3734000   1.0372589      295.43224      401.75709     -18091.184    
   3735000   1.0251804      290.18504     -76.237464     -18149.732    
   3736000   1.0343268      301.92177     -77.366056     -18057.527    
   3737000   1.0367649      307.99775      291.12939     -18011.037    
   3738000   1.0334644      300.64223     -393.33383     -18089.316    
   3739000   1.0298278      288.867       -380.89283     -18148.439    
   3740000   1.0291388      291.77295     -2249.3976     -18141.08     
   3741000   1.0317439      299.06776     -409.14511     -18078.187    
   3742000   1.0352727      291.07759      611.6627      -18126.79     
   3743000   1.0349801      298.7627       253.49036     -18110.028    
   3744000   1.0335866      292.01509     -133.27635     -18129.345    
   3745000   1.0319606      298.03631     -1281.6388     -18088.106    
   3746000   1.0366352      300.01999     -385.19503     -18046.583    
   3747000   1.0310005      303.11221     -539.01582     -18075.028    
   3748000   1.0382713      288.02498      129.06334     -18175.907    
   3749000   1.0301206      298.29148     -386.83148     -18102.808    
   3750000   1.0367422      293.86498     -289.67663     -18133.783    
   3751000   1.0339837      294.12549      447.36083     -18078.815    
   3752000   1.0341237      313.31795      265.00935     -17987.44     
   3753000   1.03646        284.65957      176.18606     -18200.434    
   3754000   1.0356604      289.77646     -363.57732     -18144.177    
   3755000   1.0310123      305.45952      35.505647     -18048.502    
   3756000   1.0309332      299.62118     -1629.0891     -18081.639    
   3757000   1.0345388      304.13163      439.52486     -18026.952    
   3758000   1.0366539      294.58691      394.76347     -18106.661    
   3759000   1.0303024      303.26236     -2096.6303     -18016.818    
   3760000   1.0359028      297.96763      810.72101     -18130.523    
   3761000   1.0402562      295.39316     -563.51565     -18097.361    
   3762000   1.0314014      311.72986      626.13144     -17965.069    
   3763000   1.0332215      297.43124     -180.63308     -18073.383    
   3764000   1.0339454      298.38342      398.69701     -18051.372    
   3765000   1.0383198      291.57189      695.44614     -18166.203    
   3766000   1.0318707      299.8143       57.268296     -18059.275    
   3767000   1.0358465      305.65908      46.095946     -18062.177    
   3768000   1.0357172      298.25645      185.52684     -18050.649    
   3769000   1.034021       295.55503     -79.638119     -18101.261    
   3770000   1.0302338      300.14313      226.10734     -18059.2      
   3771000   1.046524       301.48038      2204.4966     -18079.916    
   3772000   1.0301315      300.00343     -281.38033     -18099.666    
   3773000   1.0349869      303.2746       228.2374      -18074.317    
   3774000   1.0357648      302.14947      49.936763     -18091.002    
   3775000   1.0316096      300.2136       175.26661     -18051.805    
   3776000   1.0381058      295.1849      -327.56821     -18110.561    
   3777000   1.0344183      302.42199      125.05417     -18053.743    
   3778000   1.0346678      290.37231     -281.97135     -18156.033    
   3779000   1.036541       295.19042      1309.1862     -18121.403    
   3780000   1.0304114      295.64266     -903.48253     -18157.355    
   3781000   1.0322963      298.19584     -389.77192     -18103.894    
   3782000   1.0413777      286.42072      1321.6268     -18200.396    
   3783000   1.028666       304.60575     -275.37229     -18034.074    
   3784000   1.034519       296.24204     -1297.841      -18115.647    
   3785000   1.0407146      303.97077      89.787993     -18064.38     
   3786000   1.0210177      301.47236     -1112.7607     -18037.487    
   3787000   1.041111       292.57889     -1140.8274     -18175.902    
   3788000   1.0339026      292.95847     -422.29851     -18125.394    
   3789000   1.0282         306.44253     -24.136423     -18047.031    
   3790000   1.0432533      293.30322      977.05677     -18171.046    
   3791000   1.0337943      288.93806     -87.258235     -18174.242    
   3792000   1.02851        291.57258     -1378.6643     -18166.629    
   3793000   1.0416786      300.11557     -489.79824     -18095.565    
   3794000   1.0306444      292.20298     -64.319043     -18111.388    
   3795000   1.0354474      299.09675      2.3681721     -18070.544    
   3796000   1.0385107      287.29182      95.677234     -18188.484    
   3797000   1.0304694      288.58054     -1081.6716     -18164.227    
   3798000   1.0336628      312.8324       160.45383     -18020.052    
   3799000   1.033055       303.26894      910.30439     -18105.401    
   3800000   1.0344792      297.65169      529.07267     -18132.498    
   3801000   1.0315109      287.18907     -210.24091     -18212.826    
   3802000   1.0306872      291.57803     -414.69937     -18140.688    
   3803000   1.038648       293.54742      1123.3278     -18152.339    
   3804000   1.0313895      313.64386      82.164392     -17974.736    
   3805000   1.037058       295.99116      637.39093     -18107.62     
   3806000   1.0290398      290.0545      -789.36882     -18166.927    
   3807000   1.0342946      307.72659      318.55644     -18059.826    
   3808000   1.0401774      290.73966      303.16308     -18154.241    
   3809000   1.0305941      294.80611     -317.3791      -18120.276    
   3810000   1.0385625      294.30907      261.79944     -18152.842    
   3811000   1.0343832      300.17435     -456.21458     -18099.272    
   3812000   1.0314759      300.92212     -1181.7599     -18058.109    
   3813000   1.0413294      297.99524      260.53064     -18113.093    
   3814000   1.0300825      289.58713     -67.576861     -18171.328    
   3815000   1.0375433      303.62578      312.12417     -18106.92     
   3816000   1.0382568      316.08528      907.28036     -18026.935    
   3817000   1.0309667      295.39141     -719.49002     -18154.42     
   3818000   1.0334111      305.89888     -613.07357     -18075.637    
   3819000   1.0447913      302.52297      990.28857     -18124.499    
   3820000   1.0291124      300.70752     -486.0024      -18102.132    
   3821000   1.0344804      299.6154       396.29654     -18094.139    
   3822000   1.0399307      292.86663      736.78828     -18186.753    
   3823000   1.0316995      302.751        400.04754     -18110.673    
   3824000   1.0363366      283.89141     -700.5439      -18242.039    
   3825000   1.0358838      306.48664      1816.727      -18081.699    
   3826000   1.0347972      296.48224     -561.2911      -18125.64     
   3827000   1.0362784      301.92191     -1059.6711     -18129.55     
   3828000   1.0246185      309.94089      70.636107     -18023.176    
   3829000   1.0345361      299.21424     -215.76526     -18123.061    
   3830000   1.0418669      295.05841      464.06833     -18157.69     
   3831000   1.019336       291.67449     -962.12874     -18141.884    
   3832000   1.0343379      304.50498      305.48386     -18037.258    
   3833000   1.0382924      300.09845      762.40674     -18087.199    
   3834000   1.0164745      297.68221     -1093.5206     -18087.208    
   3835000   1.0399213      299.36242      438.70646     -18144.277    
   3836000   1.0338822      287.92482     -143.9034      -18200.646    
   3837000   1.0252072      294.07708     -399.82306     -18172.487    
   3838000   1.0331162      292.80515     -231.76429     -18215.072    
   3839000   1.031267       291.52976     -486.05502     -18167.587    
   3840000   1.0270884      299.1175       71.930241     -18092.477    
   3841000   1.0368059      284.4001       890.88341     -18255.467    
   3842000   1.0256087      292.16659     -826.80237     -18157.795    
   3843000   1.0321176      301.38939      232.68962     -18095.286    
   3844000   1.0365066      294.52047      764.75311     -18156.796    
   3845000   1.0280422      293.78778     -1390.1057     -18189.863    
   3846000   1.0297331      296.34297     -1179.4659     -18137.117    
   3847000   1.0359335      293.02719      801.49504     -18140.26     
   3848000   1.0309692      301.19138      369.78158     -18073.767    
   3849000   1.02644        292.38766     -1098.4097     -18152.27     
   3850000   1.0323404      305.12086     -0.53552956    -18073.64     
   3851000   1.0261367      299.38491     -23.182754     -18133.959    
   3852000   1.0391304      284.51456      1164.2273     -18216.912    
   3853000   1.0241019      290.86398     -596.74404     -18178.172    
   3854000   1.0282213      293.90976     -777.46206     -18197.363    
   3855000   1.0298086      295.25992      39.91256      -18148.096    
   3856000   1.0284709      288.50623     -750.45437     -18190.395    
   3857000   1.0379869      297.61402      1001.9712     -18101.177    
   3858000   1.0253678      302.06677     -271.4911      -18111.119    
   3859000   1.0352003      288.51388      168.49052     -18219.966    
   3860000   1.0237764      293.56486     -776.05653     -18124.69     
   3861000   1.0284798      301.255       -654.20342     -18115.427    
   3862000   1.0382171      301.19585      365.45411     -18118.494    
   3863000   1.0281854      305.68064     -492.33547     -18082.607    
   3864000   1.0305704      308.2393      -635.71771     -18072.503    
   3865000   1.0375021      298.06767      546.41349     -18106.028    
   3866000   1.0208892      321.75211      150.73588     -17939.722    
   3867000   1.0396974      297.89709      393.61806     -18167.008    
   3868000   1.0319865      304.40273     -743.085       -18090.56     
   3869000   1.0194433      305.00385     -1009.3884     -18063.731    
   3870000   1.0503916      286.3644       1251.389      -18228.485    
   3871000   1.0195582      303.90926     -1159.6164     -18067.086    
   3872000   1.0295706      294.78796     -843.21605     -18131.328    
   3873000   1.0478555      280.32973      1771.2254     -18298.332    
   3874000   1.0175907      287.22684     -1148.4045     -18144.24     
   3875000   1.0339528      299.29076      208.87585     -18112.181    
   3876000   1.0360096      299.98889      1064.8016     -18114.494    
   3877000   1.0291048      307.77532     -1577.9864     -18041.225    
   3878000   1.030586       298.35192     -16.962994     -18117.12     
   3879000   1.040673       298.55881      218.55466     -18156.252    
   3880000   1.0280188      305.53813      21.037704     -18057.748    
   3881000   1.0308893      296.19003     -1393.5745     -18128.705    
   3882000   1.0399742      291.76796     -236.79407     -18170.199    
   3883000   1.0217353      312.90744     -889.20547     -18049.102    
   3884000   1.0394268      300.53272      1717.054      -18126.56     
   3885000   1.0326713      294.56428     -449.62807     -18178.776    
   3886000   1.0226898      300.68884     -802.19847     -18103.437    
   3887000   1.0442094      298.63005      619.41782     -18133.458    
   3888000   1.025869       309.75197      697.80219     -18019.677    
   3889000   1.0280146      293.51566     -479.89005     -18147.207    
   3890000   1.0377615      284.29524     -274.99556     -18236.37     
   3891000   1.0305793      300.61438     -222.3534      -18119.02     
   3892000   1.0343251      302.47085      1219.7952     -18079.46     
   3893000   1.0291593      288.40184     -551.57146     -18196.323    
   3894000   1.0348015      309.34008      777.93388     -18054.807    
   3895000   1.0322108      297.85576      391.43399     -18175.749    
   3896000   1.0267819      302.0412      -787.15244     -18096.665    
   3897000   1.0357957      288.47077     -185.67044     -18175.06     
   3898000   1.0299028      291.09766     -962.74303     -18168.586    
   3899000   1.0278126      304.62587     -287.40291     -18056.31     
   3900000   1.0382907      303.68818      805.50691     -18096.635    
   3901000   1.0245481      300.96772     -1191.5268     -18135.343    
   3902000   1.0297599      301.34295      446.62287     -18094.44     
   3903000   1.036524       301.51467      783.60424     -18124.069    
   3904000   1.0290177      285.35114      316.51074     -18242.7      
   3905000   1.0301568      311.42547     -533.54762     -18075.88     
   3906000   1.0395552      294.88528      391.76317     -18172.594    
   3907000   1.0331301      306.74114      258.33144     -18103.692    
   3908000   1.0309304      306.06373      594.30955     -18108.647    
   3909000   1.0372185      293.77013      924.86146     -18227.675    
   3910000   1.0295836      288.25402      30.424368     -18193.54     
   3911000   1.0295808      300.78888      85.097901     -18116.743    
   3912000   1.0338692      300.54771      1038.7641     -18178.723    
   3913000   1.0273451      298.07196     -658.73288     -18105.383    
   3914000   1.033566       292.29673      295.5533      -18158.876    
   3915000   1.0361377      300.27369      331.27601     -18128.405    
   3916000   1.0301668      281.59455     -907.4716      -18244.585    
   3917000   1.0343981      309.94197      216.23559     -18056.182    
   3918000   1.0374961      303.40696      237.0321      -18137.903    
   3919000   1.0296271      300.42226     -1730.5772     -18122.009    
   3920000   1.0388108      287.93591      297.77752     -18217.545    
   3921000   1.0353789      302.02914     -613.82121     -18169.593    
   3922000   1.0322094      298.75517      60.992569     -18164.695    
   3923000   1.0389113      300.17131      790.1558      -18181.262    
   3924000   1.0297911      290.58349     -1361.4045     -18179.757    
   3925000   1.0414714      294.63507     -163.19474     -18153.335    
   3926000   1.0290358      295.2072      -969.35623     -18171.455    
   3927000   1.0413467      294.13365     -933.69191     -18187.653    
   3928000   1.0359881      297.01703     -760.82814     -18151.075    
   3929000   1.0329064      309.18499     -140.50266     -18064.953    
   3930000   1.0442012      310.78814      151.227       -18068.897    
   3931000   1.0311063      293.26223     -637.20577     -18153.196    
   3932000   1.0403592      290.82541      1710.1189     -18205.273    
   3933000   1.0428746      308.74244      110.56994     -18136.766    
   3934000   1.0260455      302.8545      -1343.7919     -18094.085    
   3935000   1.0375414      292.3951       257.76251     -18205.985    
   3936000   1.0391136      292.29207      1983.3282     -18204.031    
   3937000   1.0346427      302.73829      299.67105     -18135.618    
   3938000   1.0306119      288.11362      124.64407     -18182.051    
   3939000   1.0402805      293.23412      426.11405     -18234.053    
   3940000   1.0326825      306.02763     -684.72458     -18064.401    
   3941000   1.0289664      285.04666     -1200.0714     -18196.917    
   3942000   1.0347098      302.25536      122.82187     -18133.331    
   3943000   1.0323662      304.67803      638.2449      -18122.199    
   3944000   1.0342649      292.02111      514.40164     -18188.223    
   3945000   1.0376825      300.04522      667.53063     -18183.498    
   3946000   1.039806       300.88968      508.26596     -18179.823    
   3947000   1.0321121      297.26194     -399.05737     -18163.876    
   3948000   1.0405451      293.01287      1064.1271     -18158.809    
   3949000   1.0360643      300.11301      446.72929     -18124.659    
   3950000   1.0369584      299.19568     -310.98112     -18164.552    
   3951000   1.0386944      300.72291     -582.27732     -18163.446    
   3952000   1.0310135      288.59462     -221.32913     -18189.97     
   3953000   1.0453851      301.42886      1160.3448     -18146.188    
   3954000   1.0336761      293.42129     -693.58497     -18198.738    
   3955000   1.0341649      290.24694     -734.33167     -18224.848    
   3956000   1.0393012      292.46746     -75.221101     -18181.341    
   3957000   1.0255859      308.28914     -1354.8113     -18077.974    
   3958000   1.0352794      295.90058      173.50825     -18197.331    
   3959000   1.0461578      312.47725      1063.5086     -18088.389    
   3960000   1.0293386      301.42297      70.266926     -18138.719    
   3961000   1.0400941      293.85766      925.33615     -18219.633    
   3962000   1.0335838      304.25716     -16.626941     -18152.618    
   3963000   1.0312025      306.94397     -1264.9538     -18108.023    
   3964000   1.0372594      292.33386     -229.89386     -18239.235    
   3965000   1.0360882      281.14501      947.35282     -18313.115    
   3966000   1.0322421      293.81995      95.828609     -18195.052    
   3967000   1.0351948      285.79071      232.91247     -18257.25     
   3968000   1.0396541      303.31127      327.13377     -18193.995    
   3969000   1.0332966      296.01559     -5.1009389     -18185.965    
   3970000   1.0297676      296.38649     -1102.1756     -18212.212    
   3971000   1.0406327      297.13213      320.42679     -18196.072    
   3972000   1.0363427      303.94991     -419.78475     -18160.516    
   3973000   1.0355417      301.25256      240.79378     -18190.873    
   3974000   1.0344638      295.70772     -2110.7819     -18218.593    
   3975000   1.0326189      301.15155     -398.41114     -18141.016    
   3976000   1.0381641      308.51853     -51.394577     -18103.926    
   3977000   1.0411186      302.21463      343.87389     -18139.277    
   3978000   1.029068       293.93917     -81.394074     -18174.493    
   3979000   1.0386634      284.85433      164.63191     -18258.24     
   3980000   1.044779       300.98735      1322.5112     -18200.583    
   3981000   1.035178       281.30544     -674.63764     -18276.06     
   3982000   1.0350778      292.66342     -115.76979     -18238.762    
   3983000   1.039051       310.8742       794.16015     -18060.137    
   3984000   1.0369864      289.62334      314.47478     -18199.96     
   3985000   1.0354067      298.90067     -307.26135     -18182.94     
   3986000   1.0340259      292.24781      125.38786     -18229.902    
   3987000   1.039004       311.05359      383.99268     -18093.245    
   3988000   1.0409401      307.64393      596.7369      -18109.83     
   3989000   1.0329135      299.51221     -204.32585     -18160.374    
   3990000   1.0372601      301.50058      459.10952     -18207.638    
   3991000   1.0436598      292.14182      1855.5709     -18207.439    
   3992000   1.0347094      303.2356       33.874913     -18171.07     
   3993000   1.0332135      288.64493     -797.40659     -18218.018    
   3994000   1.0362464      300.34573     -2.9586646     -18171.367    
   3995000   1.0395618      294.35154     -708.70098     -18236.16     
   3996000   1.028047       300.05203     -330.25992     -18163.535    
   3997000   1.0362846      293.82341      157.62075     -18210.249    
   3998000   1.0412811      289.681        1781.5998     -18256.897    
   3999000   1.0272199      298.23165     -1376.2417     -18166.313    
   4000000   1.037597       306.44335     -429.71409     -18099.253    
   4001000   1.0364216      308.60606      409.23509     -18112.296    
   4002000   1.0310704      307.46753      1064.1269     -18141.553    
   4003000   1.0386816      297.20132      176.40851     -18189.847    
   4004000   1.0389485      308.28537      266.3907      -18118.287    
   4005000   1.0293761      296.46518     -946.57758     -18234.245    
   4006000   1.0287845      292.09655     -904.06145     -18249.608    
   4007000   1.0369531      308.47425      1140.3521     -18125.29     
   4008000   1.0319795      302.25918      617.91868     -18107.782    
   4009000   1.0335662      296.18842      45.873519     -18188.986    
   4010000   1.0379899      295.62415     -128.31692     -18207.374    
   4011000   1.0297487      307.10881     -781.56078     -18100.782    
   4012000   1.0303142      300.78439      175.65128     -18151.941    
   4013000   1.0355424      295.45433     -178.39893     -18201.214    
   4014000   1.0325164      291.99234     -826.66276     -18212.371    
   4015000   1.0324543      304.71733      1397.3836     -18130.937    
   4016000   1.0367968      295.08549      1497.6846     -18219.735    
   4017000   1.0349518      307.61436      815.30251     -18152.354    
   4018000   1.0314001      287.48304      103.56045     -18253.59     
   4019000   1.0307349      286.45302     -437.95072     -18273.477    
   4020000   1.0342789      299.57002     -658.23761     -18175.487    
   4021000   1.0394418      302.72025      2120.0751     -18181.329    
   4022000   1.0264324      309.62989     -559.64134     -18122.653    
   4023000   1.0358787      293.44914      430.26253     -18208.233    
   4024000   1.038025       293.1098       1628.7791     -18250.001    
   4025000   1.0261635      293.86299     -1257.2628     -18174.96     
   4026000   1.0401582      302.83616      157.11399     -18177.727    
   4027000   1.0358121      296.38226      1002.151      -18220.038    
   4028000   1.030964       286.36919     -1492.9666     -18287.487    
   4029000   1.0366744      295.76683      43.16507      -18182.82     
   4030000   1.0362043      303.43806      612.96688     -18163.334    
   4031000   1.0333137      294.63979     -311.65897     -18223.157    
   4032000   1.0339922      307.75209      135.745       -18140.651    
   4033000   1.0295898      309.67573      283.53594     -18114.056    
   4034000   1.0400212      307.15394     -62.681468     -18134.104    
   4035000   1.0318889      289.31807      61.610633     -18207.646    
   4036000   1.0417432      297.08338      268.75582     -18204.33     
   4037000   1.0344851      294.1198      -818.25507     -18230.942    
   4038000   1.0220989      294.76517     -1835.8226     -18185.544    
   4039000   1.0477293      308.9319       1115.8724     -18159.553    
   4040000   1.029023       299.19689     -149.72936     -18163.914    
   4041000   1.0301904      296.97139     -953.38743     -18200.618    
   4042000   1.0458122      295.47131      1293.3958     -18224.153    
   4043000   1.0311738      298.40025     -226.20859     -18193.188    
   4044000   1.0368764      307.67469      305.07788     -18136.836    
   4045000   1.0393093      293.19467     -1084.8558     -18237.172    
   4046000   1.029415       296.13376     -9.8501002     -18182.407    
   4047000   1.0385517      293.08554      456.74504     -18211.941    
   4048000   1.0329326      288.70362     -58.526298     -18230.667    
   4049000   1.0412294      306.83239      51.880113     -18119.874    
   4050000   1.0340995      302.24275      269.69733     -18135.659    
   4051000   1.0253028      308.65775     -1139.6493     -18096.169    
   4052000   1.039205       296.44219     -815.05359     -18204.145    
   4053000   1.037999       302.66591      1727.0042     -18127.62     
   4054000   1.0346123      297.33691     -349.50062     -18192.289    
   4055000   1.0389583      294.63265      23.578571     -18191.739    
   4056000   1.0367738      303.1141      -997.8018      -18142.725    
   4057000   1.0269829      299.25338     -855.59189     -18141.917    
   4058000   1.0441232      289.50408      769.91732     -18272.416    
   4059000   1.0347973      301.49522     -225.89948     -18182.479    
   4060000   1.0290691      291.66437     -850.84843     -18222.712    
   4061000   1.038273       299.50601      655.01341     -18163.086    
   4062000   1.039465       298.84447      512.78882     -18199.863    
   4063000   1.0325474      302.68653     -72.226448     -18156.438    
   4064000   1.0321031      318.00862     -299.78907     -18029.723    
   4065000   1.0449569      298.60225      1246.773      -18211.346    
   4066000   1.0298944      305.05029      443.18065     -18121.596    
   4067000   1.0345661      289.25212     -520.78943     -18260.101    
   4068000   1.0412207      280.52455      424.72456     -18325.982    
   4069000   1.0311918      308.36761     -794.99682     -18136.027    
   4070000   1.0415292      293.95984      1344.6495     -18279.127    
   4071000   1.0346306      290.35945      548.59476     -18249.628    
   4072000   1.0322906      302.49153     -1267.678      -18117.962    
   4073000   1.0375049      295.45869     -49.743334     -18189.876    
   4074000   1.0330659      292.40258     -268.46087     -18216.493    
   4075000   1.0329887      297.88423     -374.4623      -18192.459    
   4076000   1.043548       300.62355      1482.301      -18204.362    
   4077000   1.0311039      282.16648     -118.04007     -18288.711    
   4078000   1.0422255      312.45268      438.05384     -18118.412    
   4079000   1.0380507      297.49286      232.18047     -18210.887    
   4080000   1.0254806      295.63338     -1801.5191     -18185.831    
   4081000   1.0438658      307.24045      722.50623     -18152.905    
   4082000   1.0379412      294.91941      24.110404     -18186.32     
   4083000   1.0246729      299.73885     -1399.8404     -18104.901    
   4084000   1.04827        305.93933      1588.6964     -18146.919    
   4085000   1.0395164      309.01918      1846.7201     -18106.845    
   4086000   1.0299302      293.0072       198.03353     -18200.099    
   4087000   1.0442619      303.4211       596.51842     -18200.907    
   4088000   1.0371028      288.71012      193.99427     -18249.322    
   4089000   1.0281011      284.02339     -1071.7178     -18247.428    
   4090000   1.0520052      294.18056      1249.3025     -18215.139    
   4091000   1.0290276      300.99088     -356.62735     -18164.193    
   4092000   1.035196       309.22395     -2055.4957     -18118.109    
   4093000   1.040246       303.01064     -274.95759     -18167.729    
   4094000   1.0400185      286.95414      703.38309     -18252.272    
   4095000   1.0402216      299.47908      58.573143     -18171.277    
   4096000   1.0333288      302.55896     -956.54367     -18163.633    
   4097000   1.0344872      313.41672     -821.67798     -18079.398    
   4098000   1.0439992      308.23159      822.56723     -18129.94     
   4099000   1.0310541      297.23719      490.58484     -18168.616    
   4100000   1.041436       290.15932      823.70888     -18251.826    
   4101000   1.0406181      294.38518      72.754487     -18232.727    
   4102000   1.0272716      295.39257     -387.20713     -18159.867    
   4103000   1.0394848      311.40105     -696.18426     -18117.565    
   4104000   1.0384356      298.62932      110.73668     -18159.24     
   4105000   1.0315385      287.75832      364.54369     -18256.872    
   4106000   1.0414803      298.27059     -635.80138     -18194.993    
   4107000   1.0382118      311.10625     -237.50111     -18093.875    
   4108000   1.0378515      286.20415      490.48498     -18249.564    
   4109000   1.0400293      289.1851       459.68768     -18258.11     
   4110000   1.038803       294.28258      767.89994     -18216.787    
   4111000   1.0393213      293.54478      1106.8022     -18215.852    
   4112000   1.0433677      307.92963      694.33262     -18158.245    
   4113000   1.0282398      301.69786     -1463.8002     -18171.74     
   4114000   1.0392736      305.26187      20.601128     -18137.384    
   4115000   1.0371306      295.34332     -55.723098     -18238.726    
   4116000   1.0342672      305.89009     -31.236083     -18122.953    
   4117000   1.0375159      296.61131      1287.2098     -18188.821    
   4118000   1.0449469      299.89525      1331.4605     -18169.776    
   4119000   1.0332958      295.45328      563.00702     -18206.587    
   4120000   1.0350306      313.01729     -130.63771     -18087.785    
   4121000   1.0367811      304.66848      568.91429     -18150.968    
   4122000   1.0337083      303.83485      174.51144     -18128.688    
   4123000   1.0422037      295.67275      898.94814     -18250.378    
   4124000   1.0374437      292.60983     -482.60573     -18221.335    
   4125000   1.0339347      292.47403      85.374539     -18244.957    
   4126000   1.0380049      311.01895      1694.4821     -18116.972    
   4127000   1.0365087      293.2878      -380.52667     -18232.845    
   4128000   1.0283179      300.36401     -1798.9207     -18191.239    
   4129000   1.0355517      292.93045      246.70579     -18198.176    
   4130000   1.0418776      307.49394      1063.6704     -18149.776    
   4131000   1.0338795      308.31042      284.00445     -18124.415    
   4132000   1.0315445      307.54612     -1327.6979     -18102.587    
   4133000   1.0359266      297.21269     -6.8349261     -18206.429    
   4134000   1.0332222      298.85546     -448.16376     -18184.783    
   4135000   1.0331958      303.0231      -181.96105     -18151.359    
   4136000   1.0445027      289.29555      972.41229     -18277.178    
   4137000   1.0283203      298.42879     -225.15767     -18177.896    
   4138000   1.0328427      296.29954     -683.22152     -18196.298    
   4139000   1.037744       286.5828      -820.05138     -18222.909    
   4140000   1.0329899      286.81052     -106.22895     -18262.682    
   4141000   1.0400803      306.18826      1198.2766     -18133.894    
   4142000   1.03645        292.38618      369.24317     -18233.314    
   4143000   1.0348492      300.69581      129.85574     -18198.49     
   4144000   1.0351936      288.80063     -1560.6126     -18220.639    
   4145000   1.0338332      302.13806     -619.69029     -18124.568    
   4146000   1.030135       303.099       -322.07365     -18119.731    
   4147000   1.0414869      286.64612      915.40326     -18273.07     
   4148000   1.0345554      287.09457     -3.6976834     -18284.424    
   4149000   1.0343069      304.0999      -620.09881     -18126.545    
   4150000   1.0411131      303.03202      937.36841     -18137.658    
   4151000   1.037404       292.22639      79.14833      -18227.791    
   4152000   1.0291138      291.81235      70.736907     -18207.184    
   4153000   1.038573       292.1407      -194.04689     -18249.587    
   4154000   1.0396254      297.65496     -238.82824     -18202.4      
   4155000   1.0338288      300.29963     -864.33081     -18167.842    
   4156000   1.0334822      298.92807     -1498.0341     -18175.908    
   4157000   1.0495696      308.30863      1681.4957     -18114.966    
   4158000   1.034165       304.71653      16.146156     -18144.753    
   4159000   1.027294       300.74898     -1732.8405     -18150.361    
   4160000   1.0468041      296.50696      736.50196     -18243.835    
   4161000   1.0260151      296.26809     -1245.1274     -18200.873    
   4162000   1.0382868      296.8758      -151.0666      -18163.625    
   4163000   1.0479621      309.23102      2585.134      -18104.914    
   4164000   1.0284541      298.75189     -1584.8984     -18148.733    
   4165000   1.0384804      301.4995       599.59199     -18170.333    
   4166000   1.0306135      296.62322     -1864.5735     -18151.888    
   4167000   1.0363553      291.99754      547.27543     -18215.231    
   4168000   1.0403093      309.30308      1033.8075     -18124.574    
   4169000   1.0393074      309.00972      2092.5576     -18146.454    
   4170000   1.0341642      303.24412      523.06494     -18152.742    
   4171000   1.0384793      302.72395      62.785232     -18182.375    
   4172000   1.0362177      298.80962     -574.70648     -18222.91     
   4173000   1.0335319      292.90516     -761.87617     -18234.906    
   4174000   1.037333       298.119       -1419.3512     -18205.552    
   4175000   1.0344433      300.44783      185.76622     -18170.396    
   4176000   1.039573       301.79997      58.180067     -18156.808    
   4177000   1.0378411      295.34325     -279.52669     -18206.91     
   4178000   1.0308684      305.07961     -76.853789     -18150.766    
   4179000   1.0422573      292.35837      995.20972     -18240.977    
   4180000   1.0375601      290.55251     -985.87922     -18257.493    
   4181000   1.0366088      302.89506     -284.71938     -18135.936    
   4182000   1.0368999      300.85227      527.898       -18140.613    
   4183000   1.0336859      299.52115     -309.29258     -18166.225    
   4184000   1.036101       301.24211      1617.4961     -18157.539    
   4185000   1.0280969      287.24075     -929.59375     -18311.906    
   4186000   1.0410484      299.501        205.21091     -18213.966    
   4187000   1.0360054      302.69854     -106.96443     -18180.018    
   4188000   1.0300916      298.96269      955.01108     -18158.608    
   4189000   1.0413829      290.17819      1159.4148     -18272.127    
   4190000   1.0369442      291.72898     -1027.1042     -18239.919    
   4191000   1.0280293      305.42063     -678.09848     -18137.889    
   4192000   1.0430457      306.14856      467.31555     -18130.852    
   4193000   1.0378177      292.31725      474.71522     -18225.746    
   4194000   1.0303172      291.54201      524.46489     -18238.581    
   4195000   1.0420387      304.00966      189.77996     -18171.24     
   4196000   1.0346274      298.07292     -130.31468     -18186.473    
   4197000   1.035235       291.45725      521.40916     -18236.991    
   4198000   1.0486772      300.59858      1261.5408     -18186.381    
   4199000   1.031146       291.99145     -1672.4099     -18234.765    
   4200000   1.0332138      298.88778     -723.51859     -18227.144    
   4201000   1.0440139      305.25056      1009.4226     -18165.659    
   4202000   1.0244297      318.76877      522.8097      -18058.915    
   4203000   1.0390238      299.36704     -981.44311     -18196.725    
   4204000   1.0458044      311.93022      1310.7859     -18104.398    
   4205000   1.0206486      293.95352     -2160.9119     -18158.071    
   4206000   1.0413533      301.61655      974.45088     -18194.494    
   4207000   1.0390397      292.0693       405.88636     -18283.707    
   4208000   1.0313085      291.95441     -758.9221      -18227.217    
   4209000   1.0391867      310.20432      521.66923     -18107.405    
   4210000   1.0344279      282.49543     -621.60838     -18284.688    
   4211000   1.0292652      301.42161     -987.05925     -18158.725    
   4212000   1.0402741      306.87352      480.56215     -18149.531    
   4213000   1.0353029      302.37629      636.14235     -18163.276    
   4214000   1.0337299      293.01347      90.255363     -18209.451    
   4215000   1.0421878      313.18041      318.28507     -18096.275    
   4216000   1.0265884      301.04548     -750.23536     -18157.438    
   4217000   1.0401955      315.45541      1656.2238     -18100.144    
   4218000   1.0332153      300.91482     -201.08639     -18168.599    
   4219000   1.0397436      285.96007      771.90989     -18252.844    
   4220000   1.0354208      291.93885      245.10611     -18265.643    
   4221000   1.0261289      298.77646     -645.78549     -18168.982    
   4222000   1.0430945      283.03664      674.1052      -18331.934    
   4223000   1.0259543      287.45358     -1099.9371     -18241.159    
   4224000   1.0336414      306.48485     -260.00836     -18142.901    
   4225000   1.0452145      300.04558      1030.3024     -18235.255    
   4226000   1.0261137      279.0064      -920.8254      -18325.913    
   4227000   1.0364805      296.81777      666.68678     -18228.971    
   4228000   1.0355302      292.49271     -728.38833     -18254.705    
   4229000   1.0270324      285.03505     -395.69147     -18283.487    
   4230000   1.0332983      296.31645     -536.25629     -18247.795    
   4231000   1.0330628      295.74747     -78.28598      -18213.663    
   4232000   1.0325298      290.20592      75.893468     -18263.697    
   4233000   1.0312114      288.54855     -977.07751     -18288.979    
   4234000   1.0331003      309.67965      119.6919      -18117.959    
   4235000   1.0375571      297.86445      655.15356     -18206.757    
   4236000   1.0322588      287.32091      112.76254     -18275.685    
   4237000   1.0342627      302.03752      131.07797     -18183.028    
   4238000   1.0369644      290.40859      56.940926     -18296.329    
   4239000   1.0325843      291.15824      71.005527     -18220.014    
   4240000   1.0352131      295.83593     -472.18757     -18257.071    
   4241000   1.03598        292.02754     -167.09432     -18233.283    
   4242000   1.0288407      300.66343     -469.682       -18165.442    
   4243000   1.0352955      297.28217      404.38506     -18206.618    
   4244000   1.0316377      300.91145      331.52045     -18195.703    
   4245000   1.0290105      298.09861      456.61864     -18250.432    
   4246000   1.0347126      291.63134     -142.22603     -18260.651    
   4247000   1.0312196      285.79982     -2130.1368     -18265.549    
   4248000   1.0344579      303.40947      147.43185     -18215.668    
   4249000   1.0380452      301.76754      626.03361     -18199.731    
   4250000   1.0267432      302.31536      333.68234     -18148.45     
   4251000   1.0324428      301.39444      268.68678     -18211.148    
   4252000   1.0382658      284.5232      -202.73756     -18286.738    
   4253000   1.0222879      306.80646      121.97063     -18128.234    
   4254000   1.0436784      295.11459      827.47682     -18276.556    
   4255000   1.0325758      294.55123     -594.32703     -18224.324    
   4256000   1.0193218      299.47183     -1262.8148     -18158.039    
   4257000   1.0391009      288.54215      155.33541     -18288.611    
   4258000   1.0344799      298.99249      935.05947     -18210.517    
   4259000   1.0285348      288.89834     -254.18088     -18293.967    
   4260000   1.0297884      296.39988      693.8834      -18217.706    
   4261000   1.0404909      299.79225      433.00766     -18217.914    
   4262000   1.0263417      297.13008     -96.969951     -18197.176    
   4263000   1.0307681      292.91983      304.45031     -18240.53     
   4264000   1.0379051      287.23646      168.37204     -18249.348    
   4265000   1.028366       310.56229     -356.73312     -18130.716    
   4266000   1.0371642      290.09213     -285.31309     -18288.218    
   4267000   1.0327403      303.71247     -560.64898     -18181.665    
   4268000   1.0255453      303.32012     -1294.6162     -18142.361    
   4269000   1.039632       306.36529     -45.735999     -18141.438    
   4270000   1.0297293      295.7204      -375.1696      -18178.584    
   4271000   1.0334037      301.48343      197.27354     -18159.537    
   4272000   1.0421414      298.41636      1273.1534     -18213.902    
   4273000   1.0289555      299.66608     -248.84842     -18166.199    
   4274000   1.0316614      307.01648      346.87376     -18134.433    
   4275000   1.0368271      304.23316      876.74562     -18147.991    
   4276000   1.0303914      304.97854      11.70591      -18174.373    
   4277000   1.0312409      310.07925     -227.3544      -18131.424    
   4278000   1.0315246      293.02397      672.52184     -18244.591    
   4279000   1.0301205      305.9469       111.15403     -18166.754    
   4280000   1.0281285      298.17058     -425.38661     -18174.722    
   4281000   1.0340605      297.68811      911.93223     -18233.245    
   4282000   1.0290668      297.19419     -1817.472      -18201.9      
   4283000   1.0295866      302.99229     -462.57058     -18147.405    
   4284000   1.0355396      301.27344      915.274       -18198.318    
   4285000   1.0320851      292.14552     -693.00637     -18286.999    
   4286000   1.0298707      290.42886     -861.45125     -18253.772    
   4287000   1.0317216      306.58024      107.00886     -18139.534    
   4288000   1.03401        303.13636      977.34488     -18156.797    
   4289000   1.0298606      288.27074      960.74349     -18271.25     
   4290000   1.0231423      292.84456     -545.15853     -18239.619    
   4291000   1.0390174      299.8566       385.11331     -18259.784    
   4292000   1.0246564      292.87816     -1024.4367     -18235.884    
   4293000   1.0241902      305.28871     -1098.4042     -18168.968    
   4294000   1.0320161      315.42841     -51.969295     -18119.862    
   4295000   1.028217       289.883        510.06986     -18248.705    
   4296000   1.0325648      310.11174     -133.83763     -18166.639    
   4297000   1.0365559      293.83786      188.47101     -18246.535    
   4298000   1.0274048      294.7868      -918.71044     -18242.464    
   4299000   1.0299063      302.86449      204.70561     -18193.441    
   4300000   1.0321403      313.01912      641.80857     -18085.336    
   4301000   1.0284867      294.56098     -224.57234     -18260.792    
   4302000   1.0327235      308.87793      125.72525     -18150.771    
   4303000   1.0334036      306.45544      227.05494     -18164.19     
   4304000   1.0259614      299.62836     -1534.6847     -18179.611    
   4305000   1.0384196      295.33552      735.34481     -18237.029    
   4306000   1.0258152      301.29003     -851.0836      -18202.624    
   4307000   1.0298667      287.94803     -255.9164      -18326.506    
   4308000   1.0331805      300.78648     -341.40785     -18235.278    
   4309000   1.0244725      304.69242     -477.79316     -18157.252    
   4310000   1.0287642      310.25582      665.6311      -18131.388    
   4311000   1.0315551      307.45372     -92.955791     -18170.126    
   4312000   1.0282699      293.53947      369.51843     -18239.875    
   4313000   1.0356253      300.4982       521.44427     -18189.338    
   4314000   1.0299287      286.73436      516.80595     -18298.309    
   4315000   1.0223696      293.03386     -1387.3103     -18260.372    
   4316000   1.0324199      306.35451     -237.14594     -18168.021    
   4317000   1.0298544      297.17362     -772.41853     -18276.925    
   4318000   1.0276251      284.92433     -510.22029     -18313.577    
   4319000   1.0369468      287.34716      825.96071     -18305.28     
   4320000   1.0296124      289.88073     -208.51191     -18280.076    
   4321000   1.0258442      287.45484     -420.60765     -18296.631    
   4322000   1.0369122      284.56439     -21.565332     -18335.205    
   4323000   1.0305628      283.03315     -324.20579     -18283.228    
   4324000   1.0303059      287.4606       299.63814     -18288.913    
   4325000   1.027413       300.78325     -138.49571     -18232.964    
   4326000   1.0387899      302.6594       834.5885      -18198.397    
   4327000   1.026172       293.56267     -627.74775     -18208.165    
   4328000   1.031802       299.12724     -492.64126     -18221.997    
   4329000   1.0342908      294.534        831.22374     -18277.072    
   4330000   1.0288415      302.55824     -219.98185     -18167.203    
   4331000   1.0337481      318.31979     -108.67188     -18128.126    
   4332000   1.0292462      298.07495     -252.7718      -18218.68     
   4333000   1.0301683      299.25474      8.4956041     -18254.179    
   4334000   1.0359875      307.90232     -670.39098     -18157.995    
   4335000   1.0251104      305.37487     -1092.0986     -18140.714    
   4336000   1.0320023      287.52045      1003.4841     -18310.852    
   4337000   1.0392257      292.07442      1186.6723     -18287.6      
   4338000   1.0294253      309.28808     -1260.8797     -18128.734    
   4339000   1.0170915      290.96742     -1520.4661     -18234.451    
   4340000   1.0439375      315.86336      887.97712     -18142.16     
   4341000   1.0332153      304.29008      80.116456     -18169.096    
   4342000   1.0165506      306.17676     -1356.3748     -18143.992    
   4343000   1.0462046      291.91921      1280.8038     -18286.303    
   4344000   1.027344       299.77131      411.62094     -18192.974    
   4345000   1.0254655      288.27192     -1263.9287     -18292.717    
   4346000   1.0382668      305.23296      546.31352     -18192.914    
   4347000   1.0257123      296.19248     -250.92354     -18206.106    
   4348000   1.0269648      288.45945     -486.90214     -18232.685    
   4349000   1.0321015      294.96098      271.65504     -18271.653    
   4350000   1.0308642      294.68464     -42.823369     -18237.294    
   4351000   1.034453       302.69324      1163.4908     -18179.315    
   4352000   1.0325789      292.9655       134.53025     -18260.907    
   4353000   1.0332262      298.82124      717.10839     -18194.824    
   4354000   1.0313801      306.21999      1220.6433     -18141.723    
   4355000   1.0377467      299.95172      819.5839      -18238.435    
   4356000   1.029179       295.50334     -1831.9558     -18205.733    
   4357000   1.0226223      299.00702     -1631.7677     -18188.954    
   4358000   1.03664        306.6478       583.97384     -18146.144    
   4359000   1.0380121      290.11857     -314.43442     -18272.751    
   4360000   1.0229592      295.51641     -1001.3685     -18223.014    
   4361000   1.0373952      288.7514       222.71714     -18254.923    
   4362000   1.0282971      293.2556      -974.67765     -18227.403    
   4363000   1.0317848      300.41443     -234.37683     -18205.387    
   4364000   1.0348749      292.35761     -496.17206     -18255.778    
   4365000   1.0330217      294.17815     -384.10184     -18284.129    
   4366000   1.0297232      286.30754     -1270.1295     -18264.832    
   4367000   1.0353499      289.81656     -156.61982     -18295.767    
   4368000   1.042843       285.92463      478.69993     -18319.368    
   4369000   1.0220297      297.80028     -1242.7263     -18181.786    
   4370000   1.0385815      298.23781      241.25274     -18184.991    
   4371000   1.0367458      312.48874      452.16524     -18133.146    
   4372000   1.0171945      296.02366     -1172.2719     -18186.197    
   4373000   1.0483211      297.83797      1418.3455     -18232.112    
   4374000   1.0253272      303.95561      1.3318431     -18132.157    
   4375000   1.0296693      287.60278     -627.72723     -18266.245    
   4376000   1.0516291      309.57399      2610.0644     -18166.587    
   4377000   1.0208805      301.64075     -1006.6437     -18119.302    
   4378000   1.0396297      299.52925      783.47316     -18189.198    
   4379000   1.03879        303.47149      786.14973     -18223        
   4380000   1.0195162      307.37718     -745.96062     -18113.015    
   4381000   1.0407764      311.08073      1257.9916     -18153.68     
   4382000   1.0376351      301.82282      276.12599     -18194.265    
   4383000   1.0225595      295.72107     -1689.3481     -18239.193    
   4384000   1.039344       305.05852      1056.6072     -18154.876    
   4385000   1.0302159      292.52366      387.69383     -18229.516    
   4386000   1.0245868      298.3769      -326.34983     -18202.355    
   4387000   1.0431622      298.30071      1902.0078     -18265.476    
   4388000   1.0247279      297.13333     -1463.3442     -18216.768    
   4389000   1.0295004      297.37712      337.55909     -18191.542    
   4390000   1.0404922      293.12418      1206.5431     -18260.346    
   4391000   1.0239301      285.67832     -2274.8242     -18275.73     
   4392000   1.0278358      295.56675     -530.84469     -18222.852    
   4393000   1.0380412      296.16185      847.82815     -18220.503    
   4394000   1.0287326      292.24647     -732.79407     -18219.753    
   4395000   1.0250802      298.64503     -1297.6808     -18178.807    
   4396000   1.0350621      305.80442      660.95858     -18129.485    
   4397000   1.0322683      289.92598     -581.056       -18264.016    
   4398000   1.0248869      303.03854     -709.49346     -18154.157    
   4399000   1.0399646      299.02708      607.07222     -18216.128    
   4400000   1.0258652      295.77362     -1220.5201     -18211.22     
   4401000   1.0321085      290.98914      75.08444      -18267.837    
   4402000   1.0287415      304.85743      295.82788     -18155.819    
   4403000   1.0307802      291.89842      291.67008     -18231.872    
   4404000   1.0346174      295.48371      529.50723     -18207.422    
   4405000   1.0251358      305.35541     -883.88322     -18130.029    
   4406000   1.0351336      304.312       -427.37242     -18135.49     
   4407000   1.0308814      303.95551      215.65266     -18156.451    
   4408000   1.0188931      311.00135     -2064.3957     -18062.268    
   4409000   1.0415574      298.33674      1265.7519     -18203.525    
   4410000   1.0314787      293.24229      179.8701      -18251.43     
   4411000   1.0183947      300.87058     -868.82023     -18176.682    
   4412000   1.0462996      294.76397      1302.566      -18245.834    
   4413000   1.0255633      299.28731     -234.16615     -18203.21     
   4414000   1.0321306      304.71177     -549.92161     -18168.74     
   4415000   1.0448496      315.27719      2577.5598     -18119.037    
   4416000   1.0248756      288.47159      61.000239     -18241.804    
   4417000   1.0382865      288.41399     -711.5745      -18274.082    
   4418000   1.0383752      297.34749      1100.0163     -18229.947    
   4419000   1.0229009      299.00432     -284.5677      -18184.278    
   4420000   1.0437911      296.25646      2456.0663     -18251.672    
   4421000   1.0277233      293.94721     -958.08002     -18231.026    
   4422000   1.0275766      293.41622      630.37952     -18240.986    
   4423000   1.0397985      291.98781      872.03372     -18240.18     
   4424000   1.0198307      299.9097      -350.86375     -18144.246    
   4425000   1.0260099      289.17005     -1255.47       -18259.957    
   4426000   1.0366226      299.56461      652.0217      -18187.461    
   4427000   1.0196803      294.43432      89.999657     -18222.572    
   4428000   1.0460862      287.38362      2058.4118     -18270.173    
   4429000   1.0310591      295.464        63.245286     -18200.984    
   4430000   1.0194754      286.37694     -320.25427     -18252.089    
   4431000   1.0427207      311.75994      1437.9273     -18089.001    
   4432000   1.0221858      310.51859     -352.72576     -18074.726    
   4433000   1.0312308      290.41876      728.13871     -18256.731    
   4434000   1.0359175      295.46336      240.1348      -18206.363    
   4435000   1.0195158      299.36459     -825.09161     -18190.921    
   4436000   1.037519       289.69528      819.13322     -18255.939    
   4437000   1.0356845      293.46322      1211.7517     -18218.154    
   4438000   1.0241515      286.10995     -755.3462      -18255.456    
   4439000   1.0368279      300.07729      531.07262     -18166.876    
   4440000   1.0296487      314.5763      -148.53673     -18074.467    
   4441000   1.0259123      307.48134     -494.94402     -18097.021    
   4442000   1.0382969      286.49591      381.37087     -18242.206    
   4443000   1.0241595      284.80335     -1069.2841     -18238.395    
   4444000   1.036375       304.63017     -1051.3967     -18165.303    
   4445000   1.0325663      289.6551      -760.88239     -18257.083    
   4446000   1.0286674      295.1745      -450.35707     -18217.443    
   4447000   1.0365035      289.88325      467.61958     -18260.104    
   4448000   1.0233446      301.68002     -1163.3074     -18168.479    
   4449000   1.0354678      303.97646      583.36723     -18170.18     
   4450000   1.0319509      297.98658      1022.5006     -18192.441    
   4451000   1.0297284      301.50676      39.635857     -18112.829    
   4452000   1.0420175      300.57166      1102.3043     -18221.506    
   4453000   1.0250565      286.94065     -685.80982     -18209.971    
   4454000   1.028477       300.40114     -132.92963     -18158.716    
   4455000   1.036298       306.14094     -14.929616     -18153.635    
   4456000   1.0288285      282.01628      35.981861     -18289.874    
   4457000   1.0262449      282.89341     -138.27648     -18278.224    
   4458000   1.035362       296.40312     -497.97499     -18210.621    
   4459000   1.0322059      285.51947      583.07774     -18221.042    
   4460000   1.0266325      301.38032     -1334.6439     -18136.051    
   4461000   1.0310719      304.93163     -66.6166       -18114.56     
   4462000   1.0323753      305.15233     -121.22723     -18121.663    
   4463000   1.035029       298.18472      468.27844     -18170.706    
   4464000   1.0356334      292.78462     -950.50083     -18253.115    
   4465000   1.0273176      298.03349     -793.27234     -18172.914    
   4466000   1.0366245      298.6871       113.91255     -18166.751    
   4467000   1.0288095      309.4506      -296.94523     -18063.079    
   4468000   1.0325881      293.1976       375.42409     -18221.063    
   4469000   1.034215       298.42706     -147.48018     -18176.794    
   4470000   1.0303441      294.55823     -1100.2081     -18190.483    
   4471000   1.0297172      292.50867      1180.5234     -18229.342    
   4472000   1.0321259      288.78221     -593.15882     -18248.096    
   4473000   1.0306944      290.17699     -974.15386     -18251.351    
   4474000   1.0290989      281.93728     -1481.0633     -18257.734    
   4475000   1.03523        297.68677      383.21476     -18152.503    
   4476000   1.0317815      296.30356      546.46395     -18208.671    
   4477000   1.0388987      297.90617     -239.65201     -18189.769    
   4478000   1.0314329      300.90511      621.03403     -18174.648    
   4479000   1.0340475      301.14774      246.28579     -18160.003    
   4480000   1.0338378      299.31307      85.193997     -18194.28     
   4481000   1.0286801      299.45802     -1810.1565     -18232.227    
   4482000   1.0333796      298.82282     -553.5562      -18178.911    
   4483000   1.0224257      295.2082       138.71655     -18183.132    
   4484000   1.0425226      292.86702      665.78667     -18238.245    
   4485000   1.030324       295.53547     -579.70067     -18187.892    
   4486000   1.0285063      294.70816     -573.12357     -18168.394    
   4487000   1.0433422      293.4801       1197.4235     -18203.412    
   4488000   1.0311949      290.4831      -605.80972     -18214.561    
   4489000   1.033546       300.2363       416.53179     -18168.247    
   4490000   1.0384489      287.28474      1116.1603     -18283.294    
   4491000   1.0305667      315.32045     -257.98314     -18023.546    
   4492000   1.0375054      299.11966      1058.3174     -18161.816    
   4493000   1.0289387      290.67624     -311.67312     -18225.35     
   4494000   1.0336612      285.751       -45.491701     -18258.961    
   4495000   1.0310096      294.57505     -1007.8993     -18194.249    
   4496000   1.0297682      312.50298     -1048.7317     -18079.39     
   4497000   1.0317721      287.17913     -505.37275     -18231.527    
   4498000   1.0309142      304.04609     -438.48746     -18155.228    
   4499000   1.0324276      297.92115     -437.7385      -18141.045    
   4500000   1.0311903      293.03219      275.26239     -18258.407    
   4501000   1.0368198      298.09102      113.80694     -18198.271    
   4502000   1.0315307      291.25232     -147.80173     -18217.419    
   4503000   1.0323416      308.34485      1039.548      -18064.368    
   4504000   1.0322537      306.73565     -257.44809     -18123.002    
   4505000   1.0364216      302.53349      524.69511     -18121.854    
   4506000   1.0303947      300.15781      122.26273     -18127.688    
   4507000   1.0387104      300.84911      1511.0557     -18131.982    
   4508000   1.0347315      291.56276      1302.805      -18197.739    
   4509000   1.0316487      287.63374      262.54332     -18244.211    
   4510000   1.0417428      309.99918      375.87672     -18097.13     
   4511000   1.0322625      288.29273     -210.33109     -18246.029    
   4512000   1.0355016      301.24423      731.38692     -18158.391    
   4513000   1.0409586      298.84853      681.66341     -18157.457    
   4514000   1.0239816      305.51542     -430.51504     -18086.178    
   4515000   1.0336191      290.90795     -684.77944     -18172.486    
   4516000   1.0447618      297.91676      1015.8628     -18172.845    
   4517000   1.0226232      296.05803     -1774.1975     -18191.35     
   4518000   1.0307731      306.64325     -521.81178     -18119.651    
   4519000   1.0343681      297.36228      853.39331     -18164.285    
   4520000   1.0270164      289.39677     -1181.4235     -18249.64     
   4521000   1.0329048      295.998        46.157419     -18193.994    
   4522000   1.0323748      295.13235      26.911802     -18173.265    
   4523000   1.0289811      287.40231     -209.5094      -18280.514    
   4524000   1.0369054      295.72641     -902.59849     -18186.426    
   4525000   1.029212       296.16148     -307.26444     -18189.538    
   4526000   1.035616       296.05109      116.15095     -18160.229    
   4527000   1.0370856      304.03489      911.24324     -18149.384    
   4528000   1.0312237      306.07847     -43.729358     -18138.971    
   4529000   1.0364445      308.49221     -180.46708     -18130.231    
   4530000   1.0385361      305.17899      531.0073      -18140.295    
   4531000   1.0257437      302.10531     -174.66116     -18115.731    
   4532000   1.0461886      305.36469      453.79144     -18156.016    
   4533000   1.0364848      308.10026      519.12004     -18126.428    
   4534000   1.0367771      288.24435      534.36264     -18262.616    
   4535000   1.0392642      287.36474      754.18034     -18252.201    
   4536000   1.0294239      299.64727      537.75037     -18180.758    
   4537000   1.0368214      300.02892      394.76485     -18169.233    
   4538000   1.0436303      300.22832     -227.06459     -18197.858    
   4539000   1.0297006      291.50688     -922.37479     -18211.278    
   4540000   1.043048       300.36454      366.73206     -18201.402    
   4541000   1.0390633      299.33079     -953.33706     -18191.647    
   4542000   1.031024       286.75465     -821.40799     -18221.69     
   4543000   1.0402241      302.32812     -7.7166616     -18129.665    
   4544000   1.0322797      294.64244      453.052       -18215.361    
   4545000   1.0387096      299.84564      2098.355      -18162.26     
   4546000   1.0377138      284.39374     -74.177926     -18304.451    
   4547000   1.0289471      288.0254      -643.30383     -18215.314    
   4548000   1.0398363      292.75772      659.18317     -18215.439    
   4549000   1.0376062      295.52298      1414.1053     -18189.118    
   4550000   1.0378801      307.57554     -88.337217     -18114.363    
   4551000   1.0364954      291.92864      529.78594     -18240.484    
   4552000   1.0346385      304.40967      764.62649     -18119.364    
   4553000   1.042148       290.8313       819.31401     -18254.166    
   4554000   1.0296647      296.92966      228.87423     -18192.375    
   4555000   1.036976       290.15059     -298.23327     -18264.539    
   4556000   1.0347885      295.01116     -665.74308     -18171.019    
   4557000   1.0387118      295.85486      848.62493     -18193.473    
   4558000   1.0280258      285.34748     -803.98431     -18220.699    
   4559000   1.0467259      295.39034      1327.1667     -18239.031    
   4560000   1.0406303      286.71524      621.68862     -18238.331    
   4561000   1.027151       303.47157     -534.58485     -18110.391    
   4562000   1.0445333      296.26084      306.53274     -18193.093    
   4563000   1.0417312      296.96863      77.482271     -18189.306    
   4564000   1.0285968      295.37022     -467.75306     -18171.312    
   4565000   1.0408442      290.80245     -716.66856     -18243.214    
   4566000   1.0391349      313.35924      562.53658     -18089.469    
   4567000   1.0312387      291.18767      223.59802     -18264.098    
   4568000   1.0362899      312.96511      194.94274     -18045.062    
   4569000   1.0387634      302.56521      874.59675     -18153.845    
   4570000   1.0346559      275.6401      -20.130888     -18345.627    
   4571000   1.0310315      304.63763     -1377.983      -18135.805    
   4572000   1.0452295      304.558        1778.5236     -18151.381    
   4573000   1.0285237      299.36331     -1291.6281     -18134.355    
   4574000   1.0350637      296.79403     -33.076452     -18129.464    
   4575000   1.0419688      297.08367      610.26976     -18207.041    
   4576000   1.033796       301.9675      -463.37601     -18195.59     
   4577000   1.0328183      287.18359     -455.12037     -18191.403    
   4578000   1.0335869      291.98114      242.99705     -18202.656    
   4579000   1.041565       301.70882      1186.6192     -18176.244    
   4580000   1.0306919      297.51273     -1528.4574     -18175.107    
   4581000   1.0307087      289.81277     -561.73001     -18222.674    
   4582000   1.0464725      300.57563      251.76333     -18224.075    
   4583000   1.0261161      288.88291     -1487.0478     -18179.012    
   4584000   1.0389237      299.12085      1147.0288     -18144.052    
   4585000   1.0439178      297.70839      566.68746     -18219.034    
   4586000   1.0253391      304.22433     -2040.2212     -18153.982    
   4587000   1.0356197      302.08471     -1187.4785     -18164.567    
   4588000   1.036285       295.71121     -704.00577     -18199.288    
   4589000   1.0360187      305.07711      830.05313     -18128.062    
   4590000   1.0384031      298.13743      372.45665     -18148.186    
   4591000   1.0236206      299.46398     -1540.1188     -18124.21     
   4592000   1.0390489      297.71619      291.26069     -18183.819    
   4593000   1.0375994      294.39254      1318.9411     -18188.033    
   4594000   1.0312923      305.61882      23.743735     -18136.695    
   4595000   1.035758       302.75461     -532.19177     -18129.334    
   4596000   1.0402388      287.36154     -335.06527     -18258.55     
   4597000   1.030909       301.13276     -1699.1131     -18153.582    
   4598000   1.0435602      304.31195      1707.8511     -18160.109    
   4599000   1.0338384      296.63608     -114.39169     -18168.3      
   4600000   1.0379381      299.04423     -130.39441     -18225.168    
   4601000   1.0375152      290.97175      641.37673     -18227.721    
   4602000   1.0337148      296.88481     -176.68377     -18207.272    
   4603000   1.0426518      289.94908     -63.323073     -18250.689    
   4604000   1.0374767      284.29525     -795.92949     -18299.778    
   4605000   1.0334811      292.10234     -167.7143      -18260.723    
   4606000   1.034814       301.53249     -608.51374     -18154.152    
   4607000   1.0374643      295.06774      263.20732     -18186.308    
   4608000   1.0322185      292.71091     -1269.3572     -18198.214    
   4609000   1.0332598      297.86121     -295.831       -18165.081    
   4610000   1.0401547      309.38668      1020.8241     -18114.337    
   4611000   1.0370135      308.49951      83.422122     -18112.174    
   4612000   1.0322286      287.89847     -92.441855     -18205.672    
   4613000   1.0382136      297.39737      247.76015     -18185.558    
   4614000   1.033935       306.9573       881.18604     -18111.707    
   4615000   1.0391386      308.51127      1280.3518     -18127.313    
   4616000   1.0351354      303.19663      16.087319     -18164.485    
   4617000   1.0370236      307.79692     -479.60365     -18104.361    
   4618000   1.0395274      293.28886     -13.915784     -18212.353    
   4619000   1.0317901      297.66635     -1778.4652     -18189.206    
   4620000   1.036646       300.13327     -1170.7088     -18186.991    
   4621000   1.0353902      305.96461      1311.6194     -18124.065    
   4622000   1.0355347      305.0139       123.52894     -18067.071    
   4623000   1.0318755      297.101        325.197       -18179.868    
   4624000   1.0339584      281.34463      470.85272     -18305.622    
   4625000   1.0354091      285.32144      609.84276     -18274.457    
   4626000   1.028619       293.83088     -865.6013      -18218.359    
   4627000   1.0387679      300.40907      10.749693     -18151.223    
   4628000   1.0327257      303.47097     -1064.717      -18142.82     
   4629000   1.0305616      292.14125     -189.03922     -18223.068    
   4630000   1.0438738      296.01328     -298.13002     -18213.628    
   4631000   1.0274986      300.49976     -671.47938     -18132.985    
   4632000   1.032593       311.77196      127.63394     -18061.276    
   4633000   1.0371522      305.06147      591.31828     -18121.149    
   4634000   1.0318027      289.21822      681.22304     -18219.047    
   4635000   1.0460053      295.24828      1785.5966     -18244.223    
   4636000   1.0326578      291.60373     -157.57836     -18208.939    
   4637000   1.0313963      298.69315      119.03542     -18178.989    
   4638000   1.0429989      297.19023      911.67085     -18221.056    
   4639000   1.0294267      302.31173      273.1471      -18116.774    
   4640000   1.0364532      302.9475       110.54831     -18156.316    
   4641000   1.0407072      292.3259       874.58036     -18227.805    
   4642000   1.0327038      297.73082     -591.62804     -18217.136    
   4643000   1.0300537      309.83453     -1367.5374     -18079.83     
   4644000   1.0397087      304.52797     -341.55825     -18151.504    
   4645000   1.0309562      299.29174     -702.49952     -18137.068    
   4646000   1.0346409      299.45143     -1696.7011     -18172.409    
   4647000   1.0383099      309.36822     -963.48557     -18110.621    
   4648000   1.0248114      305.25683     -3.4144413     -18111.509    
   4649000   1.0408088      291.29932      338.04211     -18227.129    
   4650000   1.0350921      300.04877     -610.06263     -18131.667    
   4651000   1.0343495      288.56439      420.05084     -18228.133    
   4652000   1.0441544      296.54322      962.77054     -18243.313    
   4653000   1.0271209      301.48101     -839.26889     -18111.46     
   4654000   1.0387049      300.09455      363.22455     -18178.862    
   4655000   1.0460688      285.92455      1031.4318     -18286.145    
   4656000   1.0239094      303.7122      -1969.4217     -18125.774    
   4657000   1.0369125      309.67347      188.49105     -18124.164    
   4658000   1.0434701      301.96192      906.79001     -18196.702    
   4659000   1.025919       295.31541      116.44201     -18203.697    
   4660000   1.0353524      278.79066     -692.76145     -18324.45     
   4661000   1.0384598      305.20901     -568.77673     -18125.571    
   4662000   1.0274532      288.68263     -15.544111     -18224.426    
   4663000   1.0342626      294.77638     -119.48849     -18230.982    
   4664000   1.0288651      288.76586     -1003.4629     -18254.212    
   4665000   1.0345875      314.54899     -74.041876     -18057.17     
   4666000   1.034349       299.67908      390.85173     -18201.611    
   4667000   1.0336652      308.86645     -64.401883     -18143.226    
   4668000   1.0370373      292.02833     -367.17863     -18213.355    
   4669000   1.0300998      305.17564      272.11122     -18157.513    
   4670000   1.0322691      300.82324      509.04718     -18176.778    
   4671000   1.0398227      304.46489      926.92135     -18160.493    
   4672000   1.0326168      302.95566      1426.3683     -18183.85     
   4673000   1.0303059      290.75135     -784.53224     -18245.208    
   4674000   1.0399513      299.79894     -603.42249     -18228.454    
   4675000   1.0322798      302.46219     -414.17344     -18164.509    
   4676000   1.0338021      307.53587      732.16732     -18125.798    
   4677000   1.0389718      299.64911      728.483       -18194.989    
   4678000   1.0339656      313.37794     -208.46947     -18079.181    
   4679000   1.0357558      294.20229      3.8789454     -18225.183    
   4680000   1.035986       315.17543     -350.15748     -18105.133    
   4681000   1.0402621      303.59493      118.83432     -18164.406    
   4682000   1.0371841      292.53575      228.41303     -18189.908    
   4683000   1.0307852      291.59466     -441.45265     -18229.789    
   4684000   1.0396252      293.25607      1338.7377     -18234.834    
   4685000   1.0327116      303.34295      253.52483     -18194.716    
   4686000   1.03478        304.95705     -147.46674     -18133.672    
   4687000   1.0353199      301.21025     -358.09309     -18176.001    
   4688000   1.0358953      305.50575      356.44628     -18164.07     
   4689000   1.0332302      308.36435      534.30697     -18141.695    
   4690000   1.0310928      296.5791      -78.561122     -18187.228    
   4691000   1.0299371      314.48329     -173.59281     -18099.885    
   4692000   1.0467752      294.96375      2446.7965     -18243.628    
   4693000   1.0261958      297.15327     -503.99816     -18237.014    
   4694000   1.0339356      276.77961      169.34959     -18321.164    
   4695000   1.0406832      299.45543      556.70357     -18189.446    
   4696000   1.0316293      303.06409      14.011853     -18138.23     
   4697000   1.0342645      304.47905     -188.75226     -18139.267    
   4698000   1.0329668      287.12505     -139.57013     -18258.214    
   4699000   1.0221314      286.92185     -180.52644     -18280.889    
   4700000   1.0411684      300.23934      716.91148     -18220.89     
   4701000   1.0316959      285.56498      523.63605     -18214.858    
   4702000   1.0209293      297.30659     -1947.8607     -18178.029    
   4703000   1.0464376      312.18503      1123.4265     -18145.889    
   4704000   1.0333985      310.93379      693.82        -18077.992    
   4705000   1.0333548      299.01199      267.00161     -18201.375    
   4706000   1.0351825      296.26222      64.56591      -18185.729    
   4707000   1.0343385      292.74128      556.59326     -18235.213    
   4708000   1.0286394      301.67589      259.00592     -18193.543    
   4709000   1.0379762      312.32313      1949.0104     -18129.633    
   4710000   1.0384107      306.15404      242.8082      -18150.035    
   4711000   1.0230462      298.84421     -728.09006     -18164.817    
   4712000   1.0486729      295.77757      1694.1426     -18217.8      
   4713000   1.0350674      292.04625      406.08555     -18252.763    
   4714000   1.0332449      290.33662      1013.8827     -18256.788    
   4715000   1.0438708      289.44166      1116.5644     -18289.124    
   4716000   1.0301693      295.67241     -137.18578     -18244.374    
   4717000   1.0332406      297.52026      396.0221      -18210.968    
   4718000   1.0390547      292.93042      967.13637     -18248.139    
   4719000   1.0347545      300.75696     -98.738943     -18195.29     
   4720000   1.0289227      301.74818     -73.364588     -18193.176    
   4721000   1.0407917      306.79029      649.9674      -18156.539    
   4722000   1.0331314      307.59445      13.209249     -18144.655    
   4723000   1.0253974      290.38163     -1792.7716     -18257.997    
   4724000   1.0361721      296.9446       437.10248     -18216.831    
   4725000   1.035805       294.44609      1168.8148     -18214.157    
   4726000   1.0306193      296.04485     -517.20892     -18231.834    
   4727000   1.0340776      306.83723     -957.96778     -18148.994    
   4728000   1.0402766      304.15075      421.18302     -18172.582    
   4729000   1.0392447      311.03903      1250.0471     -18118.123    
   4730000   1.0277276      311.90835     -309.48405     -18083.442    
   4731000   1.0386521      306.80534      1402.2248     -18167.607    
   4732000   1.0377861      291.27163      546.41472     -18254.701    
   4733000   1.0242417      296.95588     -1373.0842     -18197.752    
   4734000   1.0452915      300.14815      616.78453     -18222.919    
   4735000   1.0310759      290.38142     -391.6121      -18263.332    
   4736000   1.0270399      294.02986     -1005.845      -18215.121    
   4737000   1.0471997      291.01875      840.1264      -18279.421    
   4738000   1.030974       303.86716      56.875851     -18175.041    
   4739000   1.0186477      296.97467     -2833.4769     -18173.076    
   4740000   1.0449294      308.41622      1578.2758     -18136.608    
   4741000   1.034774       303.1712       739.22211     -18156.553    
   4742000   1.0317558      298.57075     -127.62766     -18206.35     
   4743000   1.0388483      304.72566      729.68824     -18182.487    
   4744000   1.0261954      286.04098     -1100.7084     -18275.412    
   4745000   1.0389406      311.25535      1293.7563     -18120.006    
   4746000   1.0372808      310.45319      774.1806      -18144.658    
   4747000   1.0242122      311.39378     -625.49983     -18096.279    
   4748000   1.0424142      299.04581      769.40572     -18239.89     
   4749000   1.0304051      307.6347      -432.2127      -18186.982    
   4750000   1.0299422      301.39545     -301.18471     -18226.651    
   4751000   1.0415008      295.84815      172.37303     -18273.726    
   4752000   1.0254318      291.11564     -579.25539     -18248.945    
   4753000   1.0291702      301.62743     -1540.4453     -18203.46     
   4754000   1.0493558      291.34917      1702.4352     -18303.182    
   4755000   1.0177398      303.74489     -1749.0665     -18175.178    
   4756000   1.0396853      295.39011     -799.50668     -18205.827    
   4757000   1.0355014      291.97954     -498.75118     -18288.536    
   4758000   1.0223491      293.55509     -1659.074      -18276.068    
   4759000   1.0454007      305.29497      225.65859     -18184.874    
   4760000   1.0333126      277.89463     -396.06861     -18366.978    
   4761000   1.0302753      300.37271     -645.83782     -18207.416    
   4762000   1.042045       294.6405       1598.9592     -18253.338    
   4763000   1.0359159      296.24798      437.27748     -18268.127    
   4764000   1.0304679      301.79074      139.84888     -18200.231    
   4765000   1.0324404      291.59002     -160.42871     -18244.012    
   4766000   1.0409965      302.16534      561.5718      -18221.421    
   4767000   1.0289337      288.82407     -559.22199     -18298.428    
   4768000   1.0359717      298.08429     -1259.0844     -18213.518    
   4769000   1.0409795      292.12643      516.62155     -18273.73     
   4770000   1.0303802      294.84893      26.039378     -18271.636    
   4771000   1.02644        288.58563     -797.03585     -18273.983    
   4772000   1.0422092      290.43799      508.51968     -18290.956    
   4773000   1.0326418      301.4582       449.75062     -18191.882    
   4774000   1.0330242      298.08453      322.03263     -18215.653    
   4775000   1.0320777      296.20035     -382.208       -18247.066    
   4776000   1.0356638      289.31614     -109.16321     -18276.089    
   4777000   1.0368582      299.21071      360.34166     -18251.276    
   4778000   1.0337866      299.07995      68.866442     -18216.055    
   4779000   1.0368367      288.43074     -275.79667     -18305.771    
   4780000   1.0339556      300.51434      867.44055     -18226.787    
   4781000   1.0344848      292.13751     -739.21337     -18243.754    
   4782000   1.0379107      314.03791     -36.653745     -18144.746    
   4783000   1.0306279      293.16119     -193.87141     -18257.978    
   4784000   1.0364522      299.49978      1788.6464     -18221.761    
   4785000   1.0378828      308.28906      694.66744     -18150.253    
   4786000   1.0304207      294.77735     -582.29632     -18259.293    
   4787000   1.0352635      296.19418     -702.85361     -18246.716    
   4788000   1.0352182      306.90991     -1150.5445     -18188.783    
   4789000   1.0395603      291.38529      1170.4178     -18283.349    
   4790000   1.0300603      306.99115      425.01953     -18185.725    
   4791000   1.0413758      304.65563      1069.0004     -18232.426    
   4792000   1.0381302      301.86198      530.04572     -18221.217    
   4793000   1.027022       291.63228     -1568.5501     -18304.11     
   4794000   1.039139       304.71334      502.0848      -18184.886    
   4795000   1.0404668      311.19584      799.54687     -18139.239    
   4796000   1.0266128      289.50533      285.25357     -18300.254    
   4797000   1.035825       292.15309     -414.9311      -18326.947    
   4798000   1.0371443      292.83789      151.89481     -18293.731    
   4799000   1.0260295      301.89703     -766.7682      -18182.059    
   4800000   1.0354714      293.74519     -190.90506     -18289.304    
   4801000   1.0348751      292.19585     -70.784843     -18286.518    
   4802000   1.0278699      295.6163      -1112.8156     -18234.152    
   4803000   1.0358468      301.35238     -220.17794     -18263.568    
   4804000   1.039221       298.3457       204.7458      -18254.05     
   4805000   1.0287402      300.33324     -854.94917     -18239.099    
   4806000   1.0336883      297.64487     -339.60737     -18225.639    
   4807000   1.0381496      305.45073     -1012.5073     -18198.852    
   4808000   1.0227049      308.04071     -304.93301     -18170.19     
   4809000   1.0385929      313.84133     -241.85022     -18168.73     
   4810000   1.0328468      301.59359      419.04369     -18196.718    
   4811000   1.0321622      304.755        174.18235     -18211.033    
   4812000   1.0367521      286.29996     -946.87321     -18337.368    
   4813000   1.0295089      304.7519       3.3615152     -18238.678    
   4814000   1.0323023      299.21691      210.23548     -18238.934    
   4815000   1.0418399      307.39805      1475.5846     -18201.994    
   4816000   1.0276406      296.25572      195.85653     -18242.954    
   4817000   1.0349414      314.13132      925.31336     -18139.619    
   4818000   1.0325925      297.35849      515.8292      -18256.617    
   4819000   1.0342529      300.27654     -188.28412     -18261.736    
   4820000   1.036944       296.74023      1562.2064     -18286.494    
   4821000   1.0225463      306.11758     -1088.1873     -18171.28     
   4822000   1.0366959      297.50713      1272.1767     -18274.824    
   4823000   1.0395008      289.17076      434.0694      -18297.548    
   4824000   1.0235141      285.21961     -2326.9745     -18325.406    
   4825000   1.0319906      282.03779     -768.78714     -18348.971    
   4826000   1.0402176      306.92888      1357.3646     -18156.75     
   4827000   1.0282893      304.72546     -487.63822     -18197.199    
   4828000   1.0294626      283.5662      -1548.6874     -18354.924    
   4829000   1.0285695      293.32455     -991.6408      -18268.438    
   4830000   1.035106       311.81193      1541.1614     -18137.849    
   4831000   1.0298147      305.29886      460.68237     -18191.899    
   4832000   1.0305852      303.68964     -168.22581     -18249.772    
   4833000   1.0383192      304.79141      1363.6194     -18242.825    
   4834000   1.0277558      299.96634     -81.460748     -18226.976    
   4835000   1.0308613      307.99871     -64.268215     -18197.791    
   4836000   1.0438563      305.37489      983.17004     -18202.443    
   4837000   1.0224776      303.97501     -655.96727     -18151.009    
   4838000   1.02889        284.51785      338.81498     -18339.628    
   4839000   1.0385451      290.68133      134.62743     -18279.241    
   4840000   1.0215611      308.65042     -2070.373      -18185.971    
   4841000   1.0243455      307.77802     -453.53924     -18143.746    
   4842000   1.0458098      300.36906      1735.5434     -18249.63     
   4843000   1.0286003      304.90703     -225.32112     -18198.759    
   4844000   1.0263187      299.73196     -1156.873      -18189.708    
   4845000   1.0400565      299.0478       812.55385     -18214.937    
   4846000   1.0332722      309.04994      706.20149     -18162.401    
   4847000   1.0297044      298.64554      775.69476     -18202.474    
   4848000   1.03614        291.30155      697.22696     -18289.615    
   4849000   1.0334267      306.48722     -6.5595829     -18176.226    
   4850000   1.0253398      292.92282     -770.37322     -18235.827    
   4851000   1.0351258      278.58238      306.1098      -18380.765    
   4852000   1.0342876      304.38447     -376.82667     -18182.501    
   4853000   1.0290045      289.69805      427.75931     -18285.612    
   4854000   1.035089       298.04353     -559.4806      -18210.282    
   4855000   1.0311871      308.56995     -289.60483     -18170.548    
   4856000   1.0281903      293.87197     -723.4823      -18267.173    
   4857000   1.0337185      303.41639      84.922513     -18187.293    
   4858000   1.0362028      308.49676     -89.927782     -18186.224    
   4859000   1.0275678      302.89435     -998.9807      -18209.578    
   4860000   1.034002       290.67985      371.65069     -18283.843    
   4861000   1.0339165      303.06884      138.95504     -18226.204    
   4862000   1.035912       286.61147      926.02701     -18288.453    
   4863000   1.0352557      300.39068      780.77782     -18267.707    
   4864000   1.0310321      303.97342     -513.41418     -18209.799    
   4865000   1.0285627      304.42648     -859.37125     -18181.983    
   4866000   1.0350526      312.52049     -815.34682     -18140.037    
   4867000   1.0339595      295.01344      136.53739     -18230.722    
   4868000   1.0337655      300.94622      1122.2075     -18214.844    
   4869000   1.0337569      299.7021      -181.22614     -18206.404    
   4870000   1.0261532      296.60642     -1196.2825     -18215.31     
   4871000   1.0353509      297.96211      200.65259     -18247.774    
   4872000   1.0305859      283.36728     -386.46186     -18316.9      
   4873000   1.0363577      296.44989      100.374       -18245.854    
   4874000   1.0372975      294.11469      915.46403     -18284.686    
   4875000   1.0255269      303.59388     -4.3231598     -18173.479    
   4876000   1.0420864      293.81918     -208.99906     -18285.338    
   4877000   1.0312113      287.97045     -721.92935     -18267.217    
   4878000   1.0349598      289.02206     -368.31549     -18294.871    
   4879000   1.0358605      304.60739     -149.54393     -18195.688    
   4880000   1.0319509      298.2677       520.6149      -18242.286    
   4881000   1.0398818      299.90093      1029.0642     -18243.067    
   4882000   1.0307159      289.07165      155.8669      -18295.91     
   4883000   1.0305178      301.73924      119.21854     -18229.994    
   4884000   1.0381657      302.18845     -1209.6356     -18200.654    
   4885000   1.0268895      284.13715     -433.19061     -18302.163    
   4886000   1.0338305      291.73246     -746.9373      -18256.229    
   4887000   1.039116       293.43886      530.74567     -18266.715    
   4888000   1.031622       286.65081      896.81234     -18301.928    
   4889000   1.0365141      292.89114     -65.716814     -18250.438    
   4890000   1.0384084      289.02638      1363.0754     -18306.398    
   4891000   1.03294        280.45282      70.446263     -18329.281    
   4892000   1.0346424      300.1315       619.63334     -18200.623    
   4893000   1.0340442      301.19725      221.48154     -18203.015    
   4894000   1.0332311      297.50177      255.66019     -18244.567    
   4895000   1.0363413      288.1868       1233.3487     -18269.997    
   4896000   1.03925        284.72545      949.45296     -18326.546    
   4897000   1.0273005      286.7675      -368.45182     -18290.642    
   4898000   1.0326101      317.90094     -427.57786     -18076.931    
   4899000   1.0386549      285.22417      814.68916     -18330.583    
   4900000   1.0334927      288.3484       496.04736     -18304.227    
   4901000   1.0314855      302.39818     -344.47808     -18186.121    
   4902000   1.0337853      301.17676      353.97883     -18216.795    
   4903000   1.0368061      295.1211       306.1021      -18231.233    
   4904000   1.0353375      299.42495     -861.57441     -18218.977    
   4905000   1.0297857      294.05106     -231.85149     -18274.631    
   4906000   1.0325724      294.69411     -712.4873      -18226.216    
   4907000   1.0301558      308.33126     -1053.1432     -18183.348    
   4908000   1.034439       304.33852      351.09819     -18186.058    
   4909000   1.0293134      297.88777     -1288.2629     -18224.242    
   4910000   1.0346205      302.40942     -124.90452     -18235.648    
   4911000   1.0371025      303.3648       422.71367     -18205.388    
   4912000   1.0257281      302.68888     -471.12378     -18172.142    
   4913000   1.0368273      319.0646       978.6226      -18105.309    
   4914000   1.0373139      294.68706      710.72875     -18301.995    
   4915000   1.0247965      310.53314     -1261.6279     -18166.892    
   4916000   1.0360012      290.07733      915.09181     -18332.499    
   4917000   1.0311052      301.82789     -451.09329     -18248.138    
   4918000   1.0252062      291.60088     -567.00044     -18238.882    
   4919000   1.0381344      295.08451      309.76174     -18272.95     
   4920000   1.0333828      293.63741      13.940258     -18318.092    
   4921000   1.0305864      288.63303      285.37334     -18309.077    
   4922000   1.0378894      306.00558      234.04647     -18215.082    
   4923000   1.0299789      289.00814      743.45357     -18349.371    
   4924000   1.0357518      301.59257     -303.94217     -18228.167    
   4925000   1.0307993      293.42451     -1197.0774     -18259.906    
   4926000   1.0296561      300.07248     -704.95465     -18217.762    
   4927000   1.0359972      303.84385      725.82598     -18196.63     
   4928000   1.0313625      308.65854     -1320.5321     -18185.471    
   4929000   1.0356965      303.71069      429.56224     -18201.27     
   4930000   1.0322108      300.92359      893.34562     -18222.456    
   4931000   1.0384553      292.15671     -180.54377     -18324.205    
   4932000   1.0308506      299.40946     -1012.0231     -18209.407    
   4933000   1.0341158      311.87748     -102.80603     -18160.883    
   4934000   1.0405515      285.24328      842.12943     -18314.271    
   4935000   1.0367066      304.61906      873.87005     -18192.793    
   4936000   1.0311687      306.72943     -564.76735     -18190.207    
   4937000   1.0390779      294.45839      932.95173     -18270.561    
   4938000   1.0373733      305.63375      245.75893     -18157.248    
   4939000   1.0322569      283.1398      -805.67866     -18310.359    
   4940000   1.0326111      303.8889      -594.58848     -18217.574    
   4941000   1.0359124      302.46692     -545.56308     -18207.821    
   4942000   1.030362       296.74952     -319.35443     -18251.214    
   4943000   1.0343163      288.53829      456.08081     -18309.044    
   4944000   1.0434207      293.02915      262.4783      -18261.644    
   4945000   1.0273858      277.18255     -304.69833     -18335.467    
   4946000   1.0414557      292.99633      862.90758     -18293.573    
   4947000   1.0395018      313.10188      1146.6986     -18145.734    
   4948000   1.034499       305.53754      168.29585     -18190.012    
   4949000   1.0353726      297.80138     -288.51374     -18246.914    
   4950000   1.0367668      301.42452     -640.95667     -18209.617    
   4951000   1.0399095      304.16314      1234.7754     -18226.458    
   4952000   1.0308969      302.17991     -493.21767     -18214.681    
   4953000   1.0378468      295.94157      194.81116     -18271.717    
   4954000   1.0438123      298.62938      432.76697     -18271.756    
   4955000   1.0260332      297.1272      -162.93982     -18196.088    
   4956000   1.0300854      300.41919     -512.9532      -18211.439    
   4957000   1.0416011      303.74957      1226.1708     -18196.829    
   4958000   1.0298413      293.04237     -157.70232     -18270.274    
   4959000   1.0337962      292.97073      11.48422      -18266.872    
   4960000   1.0389032      289.79577      186.59029     -18310.039    
   4961000   1.0377898      309.83925      643.59373     -18140.203    
   4962000   1.0269728      289.16366      2.8016101     -18315.869    
   4963000   1.0362392      297.58666     -163.71929     -18258.813    
   4964000   1.0390517      301.10867      155.89843     -18202.536    
   4965000   1.0280576      310.53815      1009.1609     -18189.066    
   4966000   1.0362105      297.72683      585.90772     -18249.445    
   4967000   1.0384966      307.78212      56.442144     -18177.886    
   4968000   1.0290166      286.82079     -199.08581     -18309.789    
   4969000   1.03486        296.21902     -25.666265     -18269.754    
   4970000   1.0353304      297.10446      29.255265     -18298.821    
   4971000   1.0255551      292.87888      405.76147     -18277.946    
   4972000   1.0352534      307.95213     -1125.6933     -18194.285    
   4973000   1.0337238      306.85686     -149.97081     -18181.316    
   4974000   1.0285853      303.52612      531.62481     -18205.466    
   4975000   1.0375216      292.77556     -45.357663     -18293.639    
   4976000   1.0289188      291.0884      -415.53959     -18284.424    
   4977000   1.0312571      292.37647     -27.16652      -18295.807    
   4978000   1.0361483      304.15836      426.11883     -18188.525    
   4979000   1.0291651      300.86322     -831.39318     -18203.234    
   4980000   1.0329022      295.36946      57.947729     -18265.797    
   4981000   1.0438238      288.30733      647.47426     -18317.013    
   4982000   1.0224596      311.081       -886.60595     -18143.306    
   4983000   1.0327099      288.34443      149.48147     -18270.009    
   4984000   1.0377451      296.29489      1217.8346     -18274.718    
   4985000   1.0299454      304.53859      150.63123     -18160.944    
   4986000   1.0327741      301.54154     -597.36475     -18207.308    
   4987000   1.0346639      303.79834      1002.7225     -18190.72     
   4988000   1.0309456      285.56032      758.92611     -18311.92     
   4989000   1.0414838      294.99673      83.862921     -18269.836    
   4990000   1.028146       283.04107      40.473203     -18316.073    
   4991000   1.0346458      296.99613     -1330.6294     -18260.602    
   4992000   1.0314087      294.63426     -2031.9918     -18254.193    
   4993000   1.031797       310.60986      743.5552      -18151.478    
   4994000   1.0385282      314.5954       827.27715     -18142.271    
   4995000   1.0285726      311.72229      584.48417     -18103.033    
   4996000   1.034732       300.93804      291.96498     -18209.773    
   4997000   1.0343348      309.89449      283.57869     -18138.653    
   4998000   1.0255029      301.84227     -1422.4614     -18199.316    
   4999000   1.03819        294.96804      253.92507     -18236.662    
   5000000   1.0299633      302.69302     -1170.6506     -18187.321    
   5001000   1.0262383      314.64058     -918.9296      -18109.669    
   5002000   1.0375683      287.33146     -684.37686     -18300.638    
   5003000   1.0321861      299.07805     -599.62912     -18207.932    
   5004000   1.025891       311.51897     -990.40803     -18086.531    
   5005000   1.0414719      299.53655      1792.7788     -18252.314    
   5006000   1.0383022      303.61919      1167.345      -18216.638    
   5007000   1.0186701      297.77681     -2080.837      -18205.326    
   5008000   1.0399342      302.22198     -76.564661     -18195.872    
   5009000   1.0335619      303.23431     -27.256649     -18209.857    
   5010000   1.0207768      306.10797     -1524.1393     -18125.744    
   5011000   1.0475732      300.76174      2673.1306     -18225.825    
   5012000   1.0373906      270.61973     -436.58413     -18429.071    
   5013000   1.0241663      275.93786     -1056.5486     -18395.853    
   5014000   1.039769       300.47686      402.72388     -18232.356    
   5015000   1.0316977      289.83211      199.44333     -18265.171    
   5016000   1.0275571      280.64988      23.542566     -18324.663    
   5017000   1.0447351      297.66011      1191.948      -18256.717    
   5018000   1.0242926      304.9602      -322.94666     -18189.167    
   5019000   1.0295829      307.32732      767.08559     -18159.066    
   5020000   1.0448945      305.36409      1353.413      -18213.877    
   5021000   1.0210328      292.80245     -1483.2004     -18256.853    
   5022000   1.0315629      305.38774     -558.13509     -18194.684    
   5023000   1.0390433      303.98978      369.94194     -18177.705    
   5024000   1.0290712      299.90192      288.77724     -18208.278    
   5025000   1.0377557      298.56431      397.75436     -18250.202    
   5026000   1.0385449      313.86846      2002.8309     -18107.531    
   5027000   1.0312046      301.47889      285.27727     -18227.717    
   5028000   1.0349124      289.33706     -49.11401      -18310.287    
   5029000   1.0346488      298.6401       10.323443     -18249.999    
   5030000   1.0390131      294.25511      1711.0552     -18245.065    
   5031000   1.0293438      285.2656      -307.12229     -18291.276    
   5032000   1.0358553      281.00293      779.38395     -18324.999    
   5033000   1.0396402      307.17791      588.89691     -18166.657    
   5034000   1.0295673      302.4816       500.49786     -18203.362    
   5035000   1.0368016      291.65769      619.53719     -18293.315    
   5036000   1.0432822      296.03849      398.62649     -18272.985    
   5037000   1.0273803      286.44853      289.80745     -18303.618    
   5038000   1.0344896      300.27867      159.29611     -18204.587    
   5039000   1.0358392      298.03205     -241.173       -18231.074    
   5040000   1.0269543      298.22259     -788.22636     -18219.332    
   5041000   1.0371777      293.89678     -762.32328     -18305.405    
   5042000   1.0292661      305.45007     -843.03721     -18202.211    
   5043000   1.0330976      286.806       -293.00683     -18259.444    
   5044000   1.0395344      303.06884      915.89192     -18197.413    
   5045000   1.0366969      292.71586     -286.48272     -18275.132    
   5046000   1.0365548      290.53385     -10.238835     -18253.533    
   5047000   1.0360179      293.86913      841.66367     -18288.78     
   5048000   1.0342857      289.51674      226.71204     -18299.898    
   5049000   1.0387897      307.60308      176.23549     -18215.274    
   5050000   1.033758       293.2411      -743.69402     -18264.736    
   5051000   1.0355166      295.60848      130.17547     -18271.056    
   5052000   1.0399975      296.51669      417.08811     -18254.714    
   5053000   1.0355434      293.20726      436.94073     -18290.42     
   5054000   1.0381958      306.79791      1550.2395     -18182.988    
   5055000   1.041268       291.19809      720.63747     -18304.413    
   5056000   1.0321885      306.48268     -860.14613     -18191.472    
   5057000   1.0341677      301.53556      55.865971     -18222.652    
   5058000   1.0500368      296.09682      713.99343     -18295.133    
   5059000   1.0295673      302.51512      412.88207     -18231.63     
   5060000   1.0435994      297.07969      1076.0881     -18262.799    
   5061000   1.0398126      282.22126     -692.73964     -18341.069    
   5062000   1.0342109      308.11655     -661.16082     -18215.617    
   5063000   1.0375934      291.58273      700.97307     -18299.212    
   5064000   1.0371236      287.28263      962.70342     -18333.023    
   5065000   1.0449311      298.11976      1203.1716     -18272.66     
   5066000   1.033886       299.24337      915.78977     -18240.171    
   5067000   1.034007       295.44031     -128.20029     -18287.456    
   5068000   1.0447327      283.45869      263.20505     -18322.636    
   5069000   1.0296421      295.29559     -476.43725     -18255.686    
   5070000   1.0361878      296.95727     -252.18049     -18264.582    
   5071000   1.0458868      304.65555      1137.6872     -18214.252    
   5072000   1.0298807      304.15332     -154.14942     -18157.968    
   5073000   1.0339865      297.90664     -276.74092     -18257.985    
   5074000   1.0420565      304.74758      1243.7305     -18186.266    
   5075000   1.0288509      285.0471      -351.68324     -18342.037    
   5076000   1.0385579      288.61248     -306.32779     -18351.329    
   5077000   1.0365191      301.74664      1096.3403     -18209.607    
   5078000   1.0319723      289.18683     -8.6127907     -18350.428    
   5079000   1.0382615      300.52054      544.71342     -18235.015    
   5080000   1.0427881      304.06899      1543.386      -18225.624    
   5081000   1.0325219      287.86246     -654.84553     -18312.384    
   5082000   1.0359953      289.43706      1369.5209     -18295.811    
   5083000   1.0429229      297.02967     -159.65061     -18270.028    
   5084000   1.0341146      305.36139     -143.79463     -18197.911    
   5085000   1.0323678      307.12589     -1138.2852     -18143.358    
   5086000   1.0328914      290.63263     -591.45386     -18272.96     
   5087000   1.0362655      297.34953      135.06172     -18259.021    
   5088000   1.0355632      299.92825      462.68526     -18230.362    
   5089000   1.0356031      308.41701      840.60325     -18165.931    
   5090000   1.0394918      303.0915       220.35136     -18253.821    
   5091000   1.0404502      300.56263      1067.2044     -18198.638    
   5092000   1.0296952      278.48417     -845.52611     -18361.389    
   5093000   1.0382387      309.03222     -651.54082     -18201.751    
   5094000   1.0418634      313.12704      1376.6621     -18163.361    
   5095000   1.027497       287.33292     -322.59674     -18313.915    
   5096000   1.0442357      299.76167      872.3998      -18271.611    
   5097000   1.0364683      287.45313      125.4532      -18370.132    
   5098000   1.0356657      300.42088     -1205.8845     -18263.095    
   5099000   1.0364653      294.80489      756.27221     -18238.201    
   5100000   1.0424449      308.31161      650.17064     -18210.214    
   5101000   1.0360729      308.24109      475.3829      -18189.266    
   5102000   1.038563       301.17707      342.19527     -18234.554    
   5103000   1.037728       309.00343      342.53537     -18217.082    
   5104000   1.037051       293.10871     -573.66544     -18311.274    
   5105000   1.0327062      296.83111     -67.281258     -18238.012    
   5106000   1.0388913      289.69318     -14.482809     -18285.167    
   5107000   1.0382442      275.02154      56.197776     -18407.025    
   5108000   1.0333754      308.55766      704.9136      -18191.338    
   5109000   1.0419804      295.89782      2139.5938     -18268.669    
   5110000   1.0381078      295.36987     -103.50978     -18295.002    
   5111000   1.029596       294.12417     -626.22183     -18296.651    
   5112000   1.0380516      295.2347      -641.24902     -18304.126    
   5113000   1.0425054      297.8666      -59.636196     -18235.533    
   5114000   1.030902       308.09014      326.51391     -18170.629    
   5115000   1.0387067      312.57774     -244.94192     -18164.959    
   5116000   1.0425401      304.43845      970.61765     -18217.883    
   5117000   1.0364198      286.18994     -52.451296     -18339.674    
   5118000   1.0292941      304.01918     -1066.0189     -18187.571    
   5119000   1.0432495      269.57252     -105.64444     -18459.198    
   5120000   1.0345229      292.44993     -344.65064     -18307.136    
   5121000   1.0297199      306.12487     -2055.9851     -18220.708    
   5122000   1.0415975      297.59516      575.96931     -18274.467    
   5123000   1.0379939      298.47036     -71.359571     -18242.845    
   5124000   1.033442       281.67037     -35.698673     -18345.067    
   5125000   1.0415012      291.01018      222.2898      -18315.053    
   5126000   1.0362599      293.56447     -13.797375     -18319.172    
   5127000   1.0368699      300.29359      202.07035     -18253.023    
   5128000   1.0381685      301.82571      58.829125     -18220.994    
   5129000   1.0338257      293.29005      72.219181     -18284.1      
   5130000   1.034914       295.60203     -181.78427     -18272.859    
   5131000   1.0441576      298.87396      1387.2819     -18302.186    
   5132000   1.0311526      302.40535     -673.70268     -18209.573    
   5133000   1.0336955      302.33077     -500.62374     -18216.252    
   5134000   1.0453299      309.52963      1208.89       -18205.646    
   5135000   1.034696       314.98237     -441.89413     -18132.055    
   5136000   1.0300011      298.96983     -314.22431     -18250.271    
   5137000   1.0428103      292.59043      3.3807511     -18341.274    
   5138000   1.0342689      295.76361     -360.94328     -18256.068    
   5139000   1.0302713      298.53131     -492.30081     -18265.906    
   5140000   1.0432121      286.3191       803.93601     -18366.13     
   5141000   1.0418164      287.07727      497.58695     -18366.12     
   5142000   1.0370122      283.46211      678.65876     -18384.895    
   5143000   1.0372239      294.96927     -672.12189     -18303.555    
   5144000   1.0414336      287.49648      1054.7443     -18323.374    
   5145000   1.0387658      292.89626      666.6229      -18282.15     
   5146000   1.0304125      322.61491     -467.06357     -18098.18     
   5147000   1.0376136      291.83155     -681.58038     -18297.458    
   5148000   1.0441356      297.97521      719.50034     -18281.068    
   5149000   1.0230574      285.10384     -2068.1918     -18312.501    
   5150000   1.0338071      291.61269      561.05756     -18321.757    
   5151000   1.046289       303.60786      1388.7985     -18245.084    
   5152000   1.0282925      296.90587     -1533.4049     -18259.682    
   5153000   1.0314678      301.74816      235.16162     -18230.3      
   5154000   1.0444895      306.71301      2433.2571     -18207.213    
   5155000   1.0322168      301.48663     -585.81832     -18257.219    
   5156000   1.0332916      303.88428     -309.53781     -18240.323    
   5157000   1.0356395      300.78758      277.67085     -18248.043    
   5158000   1.0401735      299.56915      988.47088     -18291.022    
   5159000   1.0350204      305.52856     -66.800852     -18211.075    
   5160000   1.0405455      287.12643      1017.2723     -18358.046    
   5161000   1.0397426      299.13419      551.7298      -18269.614    
   5162000   1.0311204      287.30133     -251.83824     -18325.738    
   5163000   1.0401269      285.9159       313.1886      -18322.345    
   5164000   1.0341063      287.13425     -113.2444      -18338.923    
   5165000   1.0315186      288.88838     -1142.7376     -18310.463    
   5166000   1.0381536      303.49888      470.19651     -18224.21     
   5167000   1.0381298      301.51141      490.31697     -18240.775    
   5168000   1.0344559      302.95412     -340.54292     -18223.896    
   5169000   1.0382367      322.76902      1298.5476     -18121.113    
   5170000   1.0368443      317.66988      223.88967     -18121.708    
   5171000   1.037864       305.83005      885.00646     -18254.394    
   5172000   1.0375899      290.40605     -803.99728     -18342.369    
   5173000   1.0299648      295.27365     -1039.2265     -18271.777    
   5174000   1.0455173      292.93641      1482.4015     -18315.542    
   5175000   1.0358915      300.14501     -418.91988     -18281.843    
   5176000   1.02243        304.53839     -1034.0019     -18188.709    
   5177000   1.0426654      304.72873     -48.113084     -18234.757    
   5178000   1.0348286      304.29471      285.22145     -18224.074    
   5179000   1.0198261      314.19243     -303.79858     -18140.43     
   5180000   1.0536219      305.53953      1934.7857     -18213.971    
   5181000   1.028345       279.01614     -822.70886     -18394.258    
   5182000   1.0255085      310.25589      537.83047     -18181.376    
   5183000   1.0466077      307.87101      1144.0166     -18218.127    
   5184000   1.0348783      293.17572      364.13977     -18320.366    
   5185000   1.0316426      299.62933     -811.00042     -18253.916    
   5186000   1.0429884      302.99805      137.74031     -18276.54     
   5187000   1.0286429      284.83894     -972.824       -18329.685    
   5188000   1.0345219      307.01885      115.38479     -18198.947    
   5189000   1.0416815      304.53385      1591.7448     -18263.053    
   5190000   1.0301739      307.53221      4.0067656     -18211.463    
   5191000   1.0364374      295.42263      701.77448     -18304.354    
   5192000   1.0401285      293.64177     -191.88184     -18356.515    
   5193000   1.0316592      301.47321     -500.67999     -18251.228    
   5194000   1.0320575      301.44665     -111.04099     -18238.634    
   5195000   1.0399223      301.10544      51.719068     -18286.084    
   5196000   1.0295765      304.36261     -336.16799     -18211.404    
   5197000   1.0327087      297.03057      495.88827     -18282.36     
   5198000   1.0415139      298.67454      901.84191     -18314.193    
   5199000   1.0289663      301.34818     -277.94266     -18235.321    
   5200000   1.0334682      291.55493      98.316917     -18313.867    
   5201000   1.0408851      287.36898     -178.59086     -18376.225    
   5202000   1.026962       287.00196     -1924.393      -18364.118    
   5203000   1.0364089      291.53609      731.71699     -18326.839    
   5204000   1.0339908      293.2148      -377.51971     -18312.51     
   5205000   1.0356791      298.08354     -316.73476     -18279.866    
   5206000   1.0390405      307.1722       1072.2963     -18205.958    
   5207000   1.0329731      298.26021     -681.28145     -18301.742    
   5208000   1.0290792      306.94268     -758.70123     -18229.391    
   5209000   1.0396087      296.05686      1515.8305     -18292.195    
   5210000   1.0297878      310.06767      345.37712     -18205.43     
   5211000   1.0372328      302.95824      783.13242     -18257.978    
   5212000   1.0389534      284.5564      -736.63206     -18355.221    
   5213000   1.0223096      290.28179     -1628.5574     -18280.962    
   5214000   1.0435214      299.98601      1166.1423     -18276.087    
   5215000   1.0390931      291.54762     -985.85291     -18304.611    
   5216000   1.0221079      307.83009     -800.15078     -18171.617    
   5217000   1.052441       301.15017      3128.1217     -18249.936    
   5218000   1.0386338      303.46752      592.36587     -18223.213    
   5219000   1.023721       303.97029     -1165.4872     -18192.592    
   5220000   1.0464269      300.49573      1205.9475     -18278.7      
   5221000   1.0371683      288.78348      699.66543     -18303.572    
   5222000   1.0276562      292.63022     -1032.3064     -18293.34     
   5223000   1.0382368      297.35205      77.191681     -18240.533    
   5224000   1.031319       298.65095     -1566.8952     -18264.026    
   5225000   1.0321386      300.4735      -390.55565     -18257.821    
   5226000   1.0409693      294.77825     -122.67388     -18318.805    
   5227000   1.0349804      306.18158      206.1419      -18216.454    
   5228000   1.0341311      302.04221      159.89041     -18257.011    
   5229000   1.0450632      300.8571       376.65103     -18260.053    
   5230000   1.0355864      294.0405       197.49621     -18313.614    
   5231000   1.0210999      296.41911     -1116.5336     -18262.984    
   5232000   1.0465898      319.16343      505.2416      -18134.081    
   5233000   1.0428305      285.62465      1370.5425     -18378.801    
   5234000   1.0223768      299.87499     -1608.0826     -18250.924    
   5235000   1.0417416      288.61307      1517.4498     -18335.075    
   5236000   1.0458371      286.54789      391.19674     -18364.84     
   5237000   1.0254987      303.89445     -688.26899     -18252.091    
   5238000   1.0444353      311.62788      1219.4128     -18241.663    
   5239000   1.0388017      297.24907     -120.81203     -18243.331    
   5240000   1.0274729      297.03732     -686.91568     -18270.544    
   5241000   1.0495398      303.2222       951.66363     -18232.429    
   5242000   1.0385666      301.23955      373.55099     -18250.134    
   5243000   1.0272207      300.09814     -919.66193     -18244.259    
   5244000   1.0482979      306.96515      1444.7875     -18235.662    
   5245000   1.039374       297.50469     -424.91586     -18280.771    
   5246000   1.0250642      301.75412     -1690.5814     -18226.306    
   5247000   1.0453845      298.38291      1389.8166     -18260.431    
   5248000   1.0376024      297.40178      55.830368     -18272.189    
   5249000   1.0331784      289.53937      101.3279      -18324.43     
   5250000   1.0371616      286.16768      45.036764     -18351.036    
   5251000   1.0344983      307.30511     -790.83848     -18227.786    
   5252000   1.0337613      304.07758     -799.65706     -18215.54     
   5253000   1.0392292      301.43617      1050.2775     -18245.922    
   5254000   1.0340982      286.61402     -810.52866     -18337.588    
   5255000   1.0375908      315.7311      -285.59215     -18170.59     
   5256000   1.0395253      293.03525      706.81755     -18294.986    
   5257000   1.0341567      290.12788     -372.57387     -18286.238    
   5258000   1.0341422      306.60778     -1515.5876     -18178.871    
   5259000   1.0343761      300.01421     -540.4951      -18217.146    
   5260000   1.0368185      298.87158      231.46683     -18255.579    
   5261000   1.0321337      282.21811     -867.94904     -18386.732    
   5262000   1.0356044      295.74009      140.01268     -18287.528    
   5263000   1.0433288      298.26794      1595.1285     -18274.357    
   5264000   1.0320163      317.36077     -282.40896     -18114.227    
   5265000   1.0318439      304.28154     -863.78639     -18187.251    
   5266000   1.0407978      294.58911      473.44233     -18252.84     
   5267000   1.0321623      307.58124      549.17056     -18195.372    
   5268000   1.0266309      307.38662     -1816.5883     -18197.429    
   5269000   1.0468681      289.57685      571.34866     -18303.272    
   5270000   1.0342062      297.76163     -90.431336     -18265.725    
   5271000   1.0352057      305.44995     -78.781711     -18226.538    
   5272000   1.0377621      298.20593      1379.9942     -18248.782    
   5273000   1.0389339      285.97418      1531.8449     -18334.649    
   5274000   1.0393113      291.75204      553.05958     -18335.79     
   5275000   1.0258546      285.79545     -104.34802     -18332.375    
   5276000   1.0509724      284.63889      1764.3248     -18364.531    
   5277000   1.0402847      292.40387      1443.0776     -18342.654    
   5278000   1.027319       296.43161     -817.18918     -18235.024    
   5279000   1.0486334      302.13892      1222.7518     -18193.404    
   5280000   1.0333805      304.29211     -878.89098     -18173.011    
   5281000   1.0327765      284.75805     -537.05764     -18335.437    
   5282000   1.0496685      301.12732      1875.8258     -18273.733    
   5283000   1.0273935      295.12064      312.10004     -18277.049    
   5284000   1.0437507      304.11932      928.5336      -18265.825    
   5285000   1.0393008      298.34015     -425.29867     -18293.226    
   5286000   1.0301028      289.74093      665.80182     -18288.686    
   5287000   1.0444603      291.84758      558.98473     -18322.633    
   5288000   1.0336205      294.07355     -1857.1524     -18272.342    
   5289000   1.0411004      310.53255      365.20121     -18200.232    
   5290000   1.0448125      291.39373      645.44037     -18296.747    
   5291000   1.0319301      314.97295     -13.127615     -18136.806    
   5292000   1.0410156      301.56084     -151.06621     -18237.414    
   5293000   1.0381345      304.2918       497.73912     -18219.658    
   5294000   1.0299793      295.86555     -989.04467     -18272.706    
   5295000   1.0439499      309.24864      525.57511     -18245.59     
   5296000   1.039633       305.66581      952.89082     -18219.109    
   5297000   1.0352166      298.38195      206.94934     -18260.282    
   5298000   1.0335781      301.68335      1062.6833     -18241.366    
   5299000   1.0464946      297.60946      1442.2502     -18277.898    
   5300000   1.0338227      276.23149     -1169.9976     -18401.815    
   5301000   1.0390575      292.22201     -579.74333     -18297.263    
   5302000   1.0340399      304.69107     -322.625       -18200.136    
   5303000   1.0432674      291.5776       1681.9437     -18359.751    
   5304000   1.03177        287.67019     -1006.2251     -18335.173    
   5305000   1.0370914      295.3129      -407.7206      -18271.376    
   5306000   1.0390496      307.37133      415.46494     -18222.731    
   5307000   1.0381591      285.16147      1115.2872     -18360.277    
   5308000   1.0375739      293.02968      464.78891     -18329.133    
   5309000   1.0452549      294.55141      940.09146     -18320.998    
   5310000   1.0319065      294.34253     -1191.8167     -18284.121    
   5311000   1.0336952      291.75461     -406.25692     -18301.573    
   5312000   1.0433523      297.27156      617.57338     -18334.264    
   5313000   1.0343617      298.50373     -263.19042     -18274.765    
   5314000   1.0354097      297.81256      308.17411     -18245.406    
   5315000   1.0458983      283.31707      940.78697     -18394.831    
   5316000   1.0304693      285.00945      493.15942     -18368.842    
   5317000   1.0391612      287.68052      555.49128     -18370.896    
   5318000   1.0414875      295.93202      866.72929     -18268.191    
   5319000   1.0309624      290.55507     -1380.326      -18331.343    
   5320000   1.0403991      304.03046      231.71481     -18251.816    
   5321000   1.0387971      303.33561      290.57314     -18255.67     
   5322000   1.0362435      279.80123     -138.1605      -18382.066    
   5323000   1.0410688      285.50373      297.69154     -18400.167    
   5324000   1.0398452      309.55643      959.66792     -18237.955    
   5325000   1.0320059      293.44988     -270.83334     -18290.915    
   5326000   1.0385002      284.49808     -21.932805     -18401.174    
   5327000   1.0415486      291.4482       642.69764     -18349.215    
   5328000   1.0328026      310.50862     -290.65201     -18195.575    
   5329000   1.043785       286.40707      1046.7059     -18415.3      
   5330000   1.0399159      293.66653     -191.88846     -18361.574    
   5331000   1.0340243      287.81681     -1044.3746     -18380.359    
   5332000   1.043687       282.92838      135.97275     -18423.48     
   5333000   1.0303274      296.67737     -955.46752     -18311.708    
   5334000   1.0393158      298.44989     -730.42841     -18335.274    
   5335000   1.0427539      272.53243      330.30587     -18497.511    
   5336000   1.0357922      312.69174      563.96243     -18226.363    
   5337000   1.0427521      304.16248      516.7207      -18272.111    
   5338000   1.0388748      311.85747      263.37386     -18260.459    
   5339000   1.0372136      292.36642     -275.31101     -18347.032    
   5340000   1.0456505      303.84414      1168.3294     -18314.222    
   5341000   1.0329157      288.94973      167.51163     -18358.822    
   5342000   1.0397603      300.08852      885.59015     -18338.427    
   5343000   1.0483998      289.25874      901.95531     -18405.11     
   5344000   1.0300179      283.04689     -142.04955     -18394.162    
   5345000   1.039773       277.66689      249.37521     -18454.065    
   5346000   1.0402633      286.99361     -71.373029     -18394.592    
   5347000   1.0325216      304.4427      -117.72248     -18264.607    
   5348000   1.0437781      299.37378      1473.709      -18352.736    
   5349000   1.0339317      303.09448     -725.25167     -18304.433    
   5350000   1.0270758      304.91713     -1896.5012     -18247.836    
   5351000   1.042585       280.26301      1024.3761     -18422.603    
   5352000   1.0273285      307.52515     -950.6314      -18233.641    
   5353000   1.0371716      292.01036     -255.73755     -18379.358    
   5354000   1.0459476      292.649        1448.0649     -18360.863    
   5355000   1.0301211      290.54831     -1406.5216     -18338.804    
   5356000   1.0362062      305.14047     -598.00066     -18255.667    
   5357000   1.0444345      298.85343      793.85577     -18300.58     
   5358000   1.0319908      287.50531     -13.280901     -18399.068    
   5359000   1.0386064      299.59744      531.47968     -18313.602    
   5360000   1.0435873      285.23461      643.61344     -18403.799    
   5361000   1.0355417      301.10197     -881.4556      -18311.764    
   5362000   1.0335388      298.96925     -1836.7312     -18312.649    
   5363000   1.0353386      282.5944      -731.484       -18420.459    
   5364000   1.0365653      283.86135     -497.60643     -18414.514    
   5365000   1.0382149      293.34636     -929.15165     -18348.749    
   5366000   1.0352728      291.01386     -892.90804     -18332.27     
   5367000   1.0398195      295.68123      1716.1213     -18372.546    
   5368000   1.0404145      281.92504      51.166971     -18452.787    
   5369000   1.0280289      300.14267     -1631.0021     -18295.599    
   5370000   1.0425544      308.94859     -200.58203     -18246.35     
   5371000   1.0458136      295.3141       144.91948     -18320.884    
   5372000   1.026525       307.59616     -1205.1611     -18235.318    
   5373000   1.0393708      307.29426     -109.32261     -18258.692    
   5374000   1.0431525      316.46265     -25.628142     -18205.693    
   5375000   1.0386135      301.63437      809.69387     -18265.863    
   5376000   1.0351008      302.98029      120.39788     -18293.582    
   5377000   1.0449654      307.1048       2015.8326     -18273.67     
   5378000   1.0332478      299.39106      70.691169     -18327.173    
   5379000   1.0299933      292.22398     -399.29262     -18369.27     
   5380000   1.0456759      275.80392      1194.9639     -18486.892    
   5381000   1.0342786      299.00374      187.33265     -18318.909    
   5382000   1.0329659      298.93101     -1000.1473     -18302.838    
   5383000   1.0467334      309.88402      1619.5012     -18254.234    
   5384000   1.0365051      298.68406      859.65604     -18326.941    
   5385000   1.038128       278.38092      168.02709     -18453.145    
   5386000   1.0414903      299.31181     -969.19015     -18348.475    
   5387000   1.038859       279.04156      1415.8546     -18479.26     
   5388000   1.0391809      302.40736     -131.07707     -18347.348    
   5389000   1.0342721      286.3917      -1315.1873     -18419.588    
   5390000   1.0397534      289.21113      265.33123     -18405.001    
   5391000   1.0449099      302.43467      2328.6868     -18344.371    
   5392000   1.035897       280.49367      186.6178      -18438.607    
   5393000   1.0346611      306.12261      520.01361     -18291.73     
   5394000   1.0436384      299.08816      341.36041     -18335.039    
   5395000   1.0349796      292.63401     -535.66179     -18376.591    
   5396000   1.040281       294.2894      -529.77456     -18358.522    
   5397000   1.0373713      290.96028      7.4523611     -18360.822    
   5398000   1.0381211      311.57563     -70.968112     -18274.214    
   5399000   1.0357598      297.03587     -448.93558     -18322.551    
   5400000   1.037817       304.4054      -225.26261     -18303.695    
   5401000   1.0421624      295.65119      399.59833     -18363.42     
   5402000   1.0377093      288.92594     -625.50233     -18443.113    
   5403000   1.0395154      302.7866      -354.1219      -18318.719    
   5404000   1.0343533      293.48106     -468.10716     -18363.838    
   5405000   1.0395999      300.71735     -862.4319      -18318.65     
   5406000   1.0395551      294.57587     -883.32418     -18414.774    
   5407000   1.0351602      304.14726     -1792.6823     -18292.854    
   5408000   1.0421499      291.6782       1259.9547     -18419.853    
   5409000   1.0369888      273.58023     -141.21995     -18526.983    
   5410000   1.0367766      306.54191     -903.73612     -18293.955    
   5411000   1.0455853      300.86169      859.63321     -18332.289    
   5412000   1.0300149      300.85608     -1278.2602     -18344.32     
   5413000   1.0341508      294.00351     -1435.7586     -18367.002    
   5414000   1.0448909      289.62096      1395.4837     -18416.645    
   5415000   1.034241       282.51262     -314.9168      -18477.583    
   5416000   1.0350917      295.10665     -191.71202     -18374.279    
   5417000   1.0429982      303.04323      1547.3839     -18304.173    
   5418000   1.0400742      277.14949      601.88712     -18486.944    
   5419000   1.0345792      291.55627     -951.25657     -18410.302    
   5420000   1.0320785      305.37863     -343.43034     -18273.599    
   5421000   1.0420343      301.93483     -277.46862     -18309.751    
   5422000   1.0389095      301.72404     -572.91217     -18326.5      
   5423000   1.0310039      295.21789     -669.20948     -18372.878    
   5424000   1.0448906      279.99197      169.0309      -18472.848    
   5425000   1.034287       297.12116     -569.56213     -18303.913    
   5426000   1.0298104      292.74361     -616.26562     -18373.383    
   5427000   1.041876       303.50961     -284.22945     -18317.781    
   5428000   1.0360438      302.39532     -1516.247      -18284.738    
   5429000   1.0334855      303.82685     -950.5502      -18296.489    
   5430000   1.0438519      306.46619      1477.7318     -18297.47     
   5431000   1.0418523      312.9472       1782.5978     -18268.417    
   5432000   1.0415429      306.4747       918.34204     -18268.004    
   5433000   1.035143       309.38361      438.57014     -18271.407    
   5434000   1.0412609      288.46588     -507.07426     -18437.565    
   5435000   1.0397015      293.59918     -864.50637     -18381.412    
   5436000   1.0374651      296.01233      10.601271     -18378.808    
   5437000   1.0417894      286.23494     -789.93183     -18432.292    
   5438000   1.0348843      297.9807      -349.92302     -18317.193    
   5439000   1.0356556      307.13166      520.5316      -18293.817    
   5440000   1.0445042      289.52228     -15.072285     -18441.204    
   5441000   1.0339328      289.55435      352.06763     -18400.935    
   5442000   1.0346143      287.99876     -311.67359     -18413.357    
   5443000   1.0458636      289.86946      222.24676     -18425.852    
   5444000   1.0388127      291.16425     -66.200913     -18430.488    
   5445000   1.0297063      305.68878     -2064.4609     -18278.977    
   5446000   1.045917       296.56763      233.68951     -18373.738    
   5447000   1.0340557      307.29549     -912.08324     -18313.882    
   5448000   1.0302671      301.80693     -375.69899     -18317.217    
   5449000   1.046526       287.87088      529.15372     -18424.559    
   5450000   1.0357732      291.9822       676.3467      -18421.937    
   5451000   1.0335408      294.49607      358.10508     -18345.04     
   5452000   1.0454816      296.87661     -68.713486     -18360.947    
   5453000   1.0316426      298.07643     -853.09265     -18297.363    
   5454000   1.0347292      287.73511     -284.89198     -18402.594    
   5455000   1.0480247      296.90578      1256.5535     -18382.513    
   5456000   1.0327845      295.13339     -371.04462     -18380.864    
   5457000   1.0293741      294.16107     -1262.3606     -18380.059    
   5458000   1.0557437      298.85917      1493.1705     -18365.024    
   5459000   1.0303958      300.20347     -1009.1386     -18326.691    
   5460000   1.0321993      305.48603     -1712.4932     -18296.866    
   5461000   1.04808        299.47381      367.83797     -18354.222    
   5462000   1.0325456      299.1225      -1026.8212     -18319.354    
   5463000   1.0341178      308.3906      -1012.0172     -18295.541    
   5464000   1.0449279      312.66235     -240.24957     -18227.744    
   5465000   1.0325671      309.65437     -191.43124     -18265.359    
   5466000   1.0335643      277.59104     -32.280959     -18453.244    
   5467000   1.0503781      285.66691      1513.307      -18465.753    
   5468000   1.0368394      292.90662     -0.42096976    -18407.184    
   5469000   1.0312528      291.79195     -530.53735     -18386.654    
   5470000   1.0525329      288.44616      757.54044     -18430.05     
   5471000   1.0340464      290.35934      506.85139     -18384.34     
   5472000   1.0323504      309.52202     -166.72649     -18292.223    
   5473000   1.0479983      294.90584     -490.33248     -18361.524    
   5474000   1.0304347      299.81168     -1001.6836     -18308.833    
   5475000   1.0358105      305.815       -789.92389     -18275.42     
   5476000   1.0474453      302.90539      1571.5594     -18338.158    
   5477000   1.0338121      287.41007      906.21278     -18415.962    
   5478000   1.0394254      294.99328     -141.76211     -18355.851    
   5479000   1.0420809      288.83693     -781.40345     -18392.448    
   5480000   1.0318425      284.07772     -1331.1987     -18437.897    
   5481000   1.0339576      298.96051     -699.18634     -18318.441    
   5482000   1.0455744      301.08633      460.71893     -18317.992    
   5483000   1.0358466      315.08574      242.15241     -18221.208    
   5484000   1.0432905      294.91938      1207.3776     -18371.874    
   5485000   1.0402128      302.11301     -14.360166     -18304.317    
   5486000   1.0307906      301.60655     -573.4256      -18306.906    
   5487000   1.0421009      308.92653      1021.4252     -18252.544    
   5488000   1.0431205      300.17297     -259.96142     -18329.269    
   5489000   1.0262996      305.09772     -1224.5218     -18264.521    
   5490000   1.039462       283.6162      -814.90825     -18416.733    
   5491000   1.0427417      309.98498      387.83403     -18273.015    
   5492000   1.0315796      304.07        -411.80261     -18290.866    
   5493000   1.0436113      291.82454      990.49117     -18386.352    
   5494000   1.0451662      276.78249      890.39128     -18493.287    
   5495000   1.0337789      281.30139     -155.78752     -18443.975    
   5496000   1.0333045      298.70172     -1270.466      -18307.14     
   5497000   1.0416456      293.70683      693.62321     -18338.785    
   5498000   1.0361224      299.11664     -2.3030414     -18308.18     
   5499000   1.0359203      302.73199      448.59162     -18292.131    
   5500000   1.0437677      305.2255       971.80751     -18308.859    
   5501000   1.0356363      300.10911     -716.48813     -18279.519    
   5502000   1.0379637      298.97249     -1431.9476     -18342.63     
   5503000   1.0348198      293.12653     -1703.338      -18340.085    
   5504000   1.0313169      293.26413     -1994.8326     -18361.078    
   5505000   1.0405983      308.3029       710.68608     -18233.881    
   5506000   1.0477352      290.48074      1551.6588     -18364.291    
   5507000   1.0313588      290.3099       412.62013     -18378.962    
   5508000   1.0368332      290.01856     -167.50109     -18344.748    
   5509000   1.0501626      310.07046      1238.948      -18287.002    
   5510000   1.03378        305.62075      428.5419      -18291.356    
   5511000   1.0358174      302.12426     -1136.5949     -18275.307    
   5512000   1.0441311      288.73047     -188.1696      -18371.69     
   5513000   1.0298014      295.34655     -1163.0553     -18341.919    
   5514000   1.0406755      298.11134      205.59849     -18324.531    
   5515000   1.0413546      286.7918      -223.48812     -18406.245    
   5516000   1.033126       291.56037     -700.70231     -18343.945    
   5517000   1.0359274      297.10122     -1142.271      -18344.155    
   5518000   1.0486197      296.81204     -441.89904     -18365.921    
   5519000   1.0285896      305.20153     -1948.494      -18266.28     
   5520000   1.0311248      301.93391     -972.11014     -18315.382    
   5521000   1.0511684      312.74192      1180.2674     -18264.101    
   5522000   1.0301024      315.73615     -1170.8995     -18191.423    
   5523000   1.0339402      292.78779     -168.50151     -18360.345    
   5524000   1.0482725      314.31319      970.14303     -18256.811    
   5525000   1.0384963      298.18915      398.01813     -18356.551    
   5526000   1.0357127      287.15882     -212.70793     -18422.317    
   5527000   1.0422855      297.35207      1253.3515     -18362.616    
   5528000   1.0388632      300.54303      924.65161     -18334.296    
   5529000   1.0358454      300.11229      327.47966     -18326.311    
   5530000   1.0429743      298.54252      1108.8633     -18391.696    
   5531000   1.040357       285.95705     -190.76392     -18443.015    
   5532000   1.030738       300.094       -1138.6185     -18323.093    
   5533000   1.0409081      296.00204      235.44091     -18363.305    
   5534000   1.0442344      300.89492     -593.59089     -18336.153    
   5535000   1.0309059      307.43336     -696.31275     -18280.408    
   5536000   1.0390087      291.13878     -77.166143     -18377.706    
   5537000   1.0394568      311.51482      851.76911     -18264.964    
   5538000   1.0344622      289.9951       122.95789     -18400.572    
   5539000   1.0320985      307.05673     -186.25507     -18289.056    
   5540000   1.0486692      312.58737      962.7887      -18274.745    
   5541000   1.0357766      308.06446      657.33514     -18262.949    
   5542000   1.0261395      294.05914     -856.32572     -18334.767    
   5543000   1.0485644      298.42902      1716.7344     -18368.56     
   5544000   1.0403406      281.39864      253.92318     -18443.41     
   5545000   1.0269804      293.3456      -873.52052     -18369.456    
   5546000   1.05329        306.20797      2034.4804     -18336.602    
   5547000   1.0397657      289.20806      171.77988     -18425.085    
   5548000   1.0282508      288.44244     -608.07596     -18386        
   5549000   1.0484528      308.86158      1334.3591     -18326.547    
   5550000   1.0430052      293.35766     -167.61609     -18407.803    
   5551000   1.0285883      298.90588     -1467.0825     -18333.982    
   5552000   1.0424298      304.57506      988.57922     -18307.896    
   5553000   1.0423019      287.78286      655.75352     -18401.282    
   5554000   1.0307305      292.89477     -872.69119     -18382.123    
   5555000   1.045023       293.60564      533.28433     -18412.565    
   5556000   1.0458372      296.98468      1058.2048     -18357.875    
   5557000   1.0260846      293.05376     -1449.0727     -18341.831    
   5558000   1.041449       294.24821      749.56578     -18382.306    
   5559000   1.0423376      300.89292      1080.0268     -18339.597    
   5560000   1.0346056      292.24575     -482.88802     -18392.938    
   5561000   1.0367278      293.23135      41.067829     -18353.387    
   5562000   1.0482016      291.563        1498.176      -18442.497    
   5563000   1.0326796      298.38658     -872.68962     -18357.73     
   5564000   1.031229       299.0536      -798.01056     -18318.513    
   5565000   1.0454218      293.63732      661.83483     -18346.078    
   5566000   1.0356453      305.22892      593.88251     -18322.998    
   5567000   1.0337466      299.55669     -57.267142     -18339.649    
   5568000   1.0465529      284.00274      729.6188      -18468.409    
   5569000   1.0399101      297.23912     -204.32787     -18362.32     
   5570000   1.0314151      303.59543     -1815.7939     -18321.202    
   5571000   1.0457808      292.05691      166.15881     -18400.416    
   5572000   1.0355378      309.72199     -216.09826     -18253.292    
   5573000   1.0341394      304.60066      506.74311     -18276.487    
   5574000   1.0427583      295.61184      580.70745     -18364.122    
   5575000   1.0423287      295.99152      747.46567     -18375.113    
   5576000   1.0334868      304.92536     -59.467346     -18334.273    
   5577000   1.0390536      281.44011     -339.51976     -18416.802    
   5578000   1.04073        298.99358     -54.775313     -18360.895    
   5579000   1.0371439      286.92426     -97.848703     -18413.366    
   5580000   1.0362869      305.47712     -255.78696     -18284.284    
   5581000   1.0420965      301.04302      1111.0332     -18359.04     
   5582000   1.0384431      290.75962      563.15244     -18416.331    
   5583000   1.0350054      294.93953     -570.57906     -18368.961    
   5584000   1.0407152      316.57992     -74.93059      -18259.023    
   5585000   1.0371367      292.84819     -947.71127     -18382.359    
   5586000   1.0394901      298.13749      976.3475      -18376.568    
   5587000   1.0407017      304.22147     -47.390364     -18326.884    
   5588000   1.0328319      304.51146     -1570.0177     -18297.09     
   5589000   1.0412244      292.71188     -339.08649     -18397.951    
   5590000   1.0356036      291.86896     -499.23496     -18409.422    
   5591000   1.0405358      289.1889       1027.6084     -18447.467    
   5592000   1.0438562      299.21841      666.42815     -18347.005    
   5593000   1.0322351      295.32158     -1788.7713     -18365.231    
   5594000   1.0402711      295.97775      536.32526     -18362.018    
   5595000   1.042389       298.32562      1050.69       -18352.618    
   5596000   1.0377156      295.47524     -256.77007     -18388.444    
   5597000   1.0382002      296.37848      142.55661     -18376.045    
   5598000   1.0325776      296.74141     -1695.008      -18353.537    
   5599000   1.0412166      302.27944      169.2354      -18340.156    
   5600000   1.0417408      303.13961      26.623576     -18338.082    
   5601000   1.0368842      291.33897      555.21663     -18396.664    
   5602000   1.040459       298.14381      496.45236     -18382.711    
   5603000   1.0381288      317.10038     -878.03242     -18235.427    
   5604000   1.0408359      301.61948      392.37075     -18306.292    
   5605000   1.0370445      295.98437     -388.28279     -18369.046    
   5606000   1.0438615      285.74621     -78.057928     -18434.66     
   5607000   1.0303734      291.11802     -1349.1226     -18408.135    
   5608000   1.0372433      299.44321     -1617.9277     -18355.636    
   5609000   1.0437894      284.39157      10.334723     -18460.184    
   5610000   1.0352775      300.3515      -1364.8492     -18312.649    
   5611000   1.0322821      308.73233     -1401.8274     -18267.301    
   5612000   1.0506385      300.70646      1472.5803     -18366.327    
   5613000   1.0408926      305.59925      924.67765     -18334.356    
   5614000   1.0353959      300.01459      64.949539     -18364.318    
   5615000   1.0485794      285.63276      1506.0166     -18487.286    
   5616000   1.0402264      286.65795      1171.8711     -18449.531    
   5617000   1.0307448      298.68084     -323.19281     -18362.35     
   5618000   1.0496966      287.44139      1284.2253     -18413.934    
   5619000   1.0312946      299.92171      439.68883     -18300.177    
   5620000   1.0445394      302.78798      288.9365      -18354.37     
   5621000   1.0412582      285.85339      59.58305      -18424        
   5622000   1.0347873      306.55673     -30.351978     -18287.994    
   5623000   1.0500463      308.50648      2032.2664     -18302.252    
   5624000   1.0405021      305.50187      1253.8822     -18347.035    
   5625000   1.0339385      298.79508      113.94115     -18355.099    
   5626000   1.0467718      270.53357      341.23376     -18546.491    
   5627000   1.034424       293.11386     -582.30478     -18403.226    
   5628000   1.0372322      299.32356     -1522.7517     -18319.439    
   5629000   1.0403991      306.79232      552.14995     -18297.795    
   5630000   1.0358187      284.98737      100.87358     -18458.758    
   5631000   1.0434485      304.06403      1545.4708     -18336.334    
   5632000   1.0288794      305.03919     -510.65383     -18275.186    
   5633000   1.0359471      305.82488      693.92914     -18280.249    
   5634000   1.0513992      299.18944      1495.192      -18361.019    
   5635000   1.0276189      287.99386     -1174.8264     -18360.727    
   5636000   1.0340873      288.19037     -1230.5456     -18410.145    
   5637000   1.0505277      296.58031      332.33794     -18382.427    
   5638000   1.0295265      292.48843     -810.42455     -18371.477    
   5639000   1.0367647      292.57333      117.64196     -18380.748    
   5640000   1.0463075      296.3728       411.92921     -18389.908    
   5641000   1.0266827      287.47168     -1549.9163     -18402.059    
   5642000   1.0360086      292.61898     -1143.3732     -18436.488    
   5643000   1.040144       302.79241     -945.71964     -18306.05     
   5644000   1.0344587      300.58403     -3.2421168     -18314.233    
   5645000   1.0392737      294.92921      1380.1507     -18379.572    
   5646000   1.0462553      299.60518      1057.7302     -18357.747    
   5647000   1.0353322      290.43841     -480.8885      -18431.508    
   5648000   1.0338852      292.93834     -1605.2207     -18392.119    
   5649000   1.0415208      290.82889     -10.004342     -18409.397    
   5650000   1.0408545      297.5989      -100.87952     -18353.952    
   5651000   1.0347774      293.88254      468.34473     -18389.702    
   5652000   1.0468826      291.23295      354.76467     -18439.774    
   5653000   1.0404277      275.60093      743.21429     -18531.59     
   5654000   1.0346361      280.5092      -615.55804     -18490.737    
   5655000   1.0361684      303.97919     -1162.5507     -18343.571    
   5656000   1.0464776      294.16828     -300.24272     -18375.112    
   5657000   1.0387031      290.47511      22.849598     -18397.308    
   5658000   1.0354799      283.91762      143.56386     -18484.346    
   5659000   1.0464682      286.45731      999.17238     -18473.95     
   5660000   1.0321266      295.56001     -973.86876     -18338.432    
   5661000   1.0341353      293.72684      62.954863     -18352.226    
   5662000   1.0496488      296.0934       1934.6321     -18403.938    
   5663000   1.0308867      287.84164     -934.35797     -18405.332    
   5664000   1.0413032      298.44048      874.11023     -18355.615    
   5665000   1.0444664      286.88282      541.42315     -18428.492    
   5666000   1.032937       304.07843     -721.53115     -18324.151    
   5667000   1.0443743      296.81837      1040.2639     -18401.734    
   5668000   1.0432945      295.77997      1022.7669     -18404.008    
   5669000   1.0320173      300.97408     -891.58196     -18351.228    
   5670000   1.0441268      298.80511     -6.2164474     -18385.637    
   5671000   1.0404867      307.90021      246.16139     -18285.389    
   5672000   1.0336467      304.06465     -616.76418     -18301.19     
   5673000   1.0419563      301.28586      1150.4836     -18328.847    
   5674000   1.0397439      295.48344      1010.2968     -18384.195    
   5675000   1.0350057      293.00319     -1024.2534     -18386.904    
   5676000   1.0411681      305.17491      1126.52       -18320.567    
   5677000   1.0437509      284.37558      1273.1603     -18464.807    
   5678000   1.0360093      273.00548      232.87878     -18537.295    
   5679000   1.0383087      288.52459      410.58509     -18430.68     
   5680000   1.0428268      298.03395      857.03861     -18312.503    
   5681000   1.0409686      309.06268      518.15359     -18286.077    
   5682000   1.0330748      291.88894     -1424.1962     -18379.943    
   5683000   1.0418661      302.2476      -1118.4435     -18328.352    
   5684000   1.0441637      291.39033      810.80135     -18411.086    
   5685000   1.0372471      281.75156      460.78045     -18472.859    
   5686000   1.0420642      286.47485      484.09678     -18462.47     
   5687000   1.0374073      298.26776      207.81203     -18370.121    
   5688000   1.0369505      301.25541     -1182.8776     -18347.332    
   5689000   1.0402514      310.13522      1039.6864     -18286.843    
   5690000   1.0330567      293.09274     -1365.318      -18399.032    
   5691000   1.0405644      300.9636      -159.49699     -18340.949    
   5692000   1.0434157      281.28225      170.62677     -18476.867    
   5693000   1.0349676      295.78296     -693.30533     -18362.972    
   5694000   1.040447       295.48739     -1687.3373     -18372.979    
   5695000   1.0389274      291.92278     -606.02398     -18376.86     
   5696000   1.038677       301.86732     -80.532855     -18336.046    
   5697000   1.0418453      292.19501      1185.5093     -18414.321    
   5698000   1.0425414      285.74326      1124.1909     -18488.78     
   5699000   1.0378443      295.11963     -339.8714      -18372.754    
   5700000   1.0405184      310.20797      375.56993     -18280.589    
   5701000   1.0396142      294.84019      50.741076     -18380.434    
   5702000   1.0343284      313.88792      117.3117      -18257.719    
   5703000   1.0381468      297.07927     -449.51266     -18376.153    
   5704000   1.0382862      302.53475     -778.37334     -18357.353    
   5705000   1.0293252      309.08466     -1509.8625     -18285.349    
   5706000   1.0458349      298.20759      1426.1652     -18369.733    
   5707000   1.0371953      285.81236      512.49966     -18448.714    
   5708000   1.0295444      313.11492     -1428.023      -18250.539    
   5709000   1.047316       290.27886      1251.5622     -18403.749    
   5710000   1.0399706      305.08666      264.8684      -18310.952    
   5711000   1.0304112      293.58643     -528.8832      -18384.453    
   5712000   1.0456236      294.72685      577.2174      -18401.914    
   5713000   1.038834       283.94429      575.45008     -18446.846    
   5714000   1.0322615      292.6877      -993.73104     -18391.813    
   5715000   1.0434141      300.40492      428.73427     -18329.503    
   5716000   1.0369058      302.08364      339.28868     -18339.401    
   5717000   1.031932       309.57548     -422.12739     -18265.613    
   5718000   1.0410957      304.73952      895.25278     -18344.671    
   5719000   1.0408277      289.91943      863.05253     -18417.44     
   5720000   1.038512       291.34735      705.01134     -18419.115    
   5721000   1.0410723      290.31772     -226.30378     -18398.433    
   5722000   1.037537       294.26309     -330.28689     -18414.043    
   5723000   1.0366386      305.25902     -6.6353906     -18303.033    
   5724000   1.0356096      292.81249      419.14573     -18359.26     
   5725000   1.0443633      293.03404      939.26011     -18422.147    
   5726000   1.0343176      286.11563     -64.927168     -18462.832    
   5727000   1.0359358      300.15977     -987.42246     -18374.65     
   5728000   1.0383207      291.69815      810.911       -18407.752    
   5729000   1.0403679      293.60747      193.98381     -18418.998    
   5730000   1.0400381      294.97352      464.27706     -18390.339    
   5731000   1.0342751      286.28402     -917.86225     -18442.809    
   5732000   1.0323421      285.92672     -1336.5134     -18407.966    
   5733000   1.0420798      300.18469      501.94164     -18348.407    
   5734000   1.0428165      310.72035      1228.0828     -18302.118    
   5735000   1.0351238      301.84496      310.89568     -18326.241    
   5736000   1.039782       290.33701      1124.7855     -18415.318    
   5737000   1.041865       288.44712     -424.7039      -18446.803    
   5738000   1.0346007      293.7529      -1199.1108     -18390.112    
   5739000   1.0393733      295.78635     -1379.7435     -18384.823    
   5740000   1.0349958      300.12298     -1542.1794     -18338.015    
   5741000   1.0393827      307.33206      553.02997     -18280.626    
   5742000   1.0364975      297.94749     -91.272001     -18331.784    
   5743000   1.0372353      296.26499     -252.78544     -18361.689    
   5744000   1.0443039      295.71658      539.46951     -18381.174    
   5745000   1.0376157      297.4667       221.1965      -18393.783    
   5746000   1.032602       295.41405     -853.96906     -18371.045    
   5747000   1.0423702      283.94116     -1648.014      -18430.437    
   5748000   1.0394334      304.90331      1135.3619     -18289.279    
   5749000   1.0371552      290.5898      -402.37263     -18424.983    
   5750000   1.0386834      299.47628     -306.24541     -18328.682    
   5751000   1.0411483      305.66318     -1279.9415     -18301.003    
   5752000   1.0303292      301.95274      130.63416     -18317.477    
   5753000   1.043951       303.17563      794.72043     -18340.32     
   5754000   1.041214       305.65235     -36.758884     -18308.728    
   5755000   1.0331851      295.67787     -1187.1031     -18356.179    
   5756000   1.0441701      288.17367      742.06464     -18396.276    
   5757000   1.0383008      303.59739      354.53391     -18304.921    
   5758000   1.0408529      308.71319      509.5684      -18313.269    
   5759000   1.0374771      297.76604     -505.12576     -18370.46     
   5760000   1.0320854      302.28084     -1297.4026     -18304.792    
   5761000   1.03457        292.78661     -1553.4523     -18363.345    
   5762000   1.0438674      288.1086       735.35045     -18427.585    
   5763000   1.0339767      293.64382     -617.40704     -18424.028    
   5764000   1.0349714      298.91957     -1066.1439     -18350.727    
   5765000   1.0419679      291.20096      104.84377     -18397.727    
   5766000   1.0435952      293.42798      171.78687     -18408.621    
   5767000   1.029288       302.23895     -606.67718     -18303.349    
   5768000   1.0431971      306.77982      1124.2032     -18312.144    
   5769000   1.0455294      301.97995      1389.2931     -18327.74     
   5770000   1.0265863      296.23856     -1236.4483     -18353.407    
   5771000   1.046175       286.41325      173.87092     -18460.846    
   5772000   1.0421446      297.67819      659.36549     -18372.4      
   5773000   1.0219613      310.60347     -2116.3023     -18221.254    
   5774000   1.0477742      289.9694       790.38011     -18430.579    
   5775000   1.047404       286.70755      1178.4927     -18475.193    
   5776000   1.0235661      280.6406      -2394.876      -18478.164    
   5777000   1.0440449      294.34009      1174.5174     -18396.58     
   5778000   1.0476324      302.47893      1332.6689     -18332.392    
   5779000   1.0246562      298.13179     -1536.8409     -18325.367    
   5780000   1.0493323      290.87395      1668.5139     -18449.714    
   5781000   1.0458768      284.96966      247.93871     -18442.853    
   5782000   1.0182739      290.60907     -2231.4671     -18363.5      
   5783000   1.0431992      289.51896      179.73725     -18405.097    
   5784000   1.0445218      306.90705     -337.22731     -18318.746    
   5785000   1.0346326      283.32799      256.06005     -18443.53     
   5786000   1.040522       280.57821     -673.09389     -18463.936    
   5787000   1.0400669      296.22986     -355.52988     -18367.716    
   5788000   1.0334785      298.38338     -648.97447     -18349.927    
   5789000   1.0414604      308.84399     -313.42875     -18286.768    
   5790000   1.0402356      283.27299     -430.46092     -18454.723    
   5791000   1.0376831      294.3111      -405.33411     -18356.807    
   5792000   1.0403365      293.28887      476.91656     -18367.657    
   5793000   1.0393296      306.29895     -133.64412     -18291.037    
   5794000   1.0363555      300.31346     -1231.2515     -18323.949    
   5795000   1.0388539      304.07083      232.28986     -18327.183    
   5796000   1.0428706      289.17106     -158.43705     -18454.865    
   5797000   1.0306169      302.60259     -2116.5975     -18327.865    
   5798000   1.0380487      296.24135     -56.313301     -18361.51     
   5799000   1.0449156      287.54128      198.75427     -18430.243    
   5800000   1.0326624      289.09315     -488.04793     -18403.078    
   5801000   1.036593       316.97964     -615.05804     -18249.951    
   5802000   1.0461229      305.8243       745.58433     -18315.674    
   5803000   1.0289784      305.58094     -1749.1155     -18286.065    
   5804000   1.0356273      297.72352     -854.91732     -18346.517    
   5805000   1.045224       310.95604      81.714228     -18280.628    
   5806000   1.0326343      303.96623      797.78592     -18293.946    
   5807000   1.0398222      289.79544      955.76915     -18388.949    
   5808000   1.0425758      307.85735      1582.244      -18270.054    
   5809000   1.0327504      302.47244     -58.449732     -18329.645    
   5810000   1.0500689      305.06482      720.16596     -18333.057    
   5811000   1.0381967      301.54768      595.06837     -18339.417    
   5812000   1.0281333      299.30884      180.26567     -18327.288    
   5813000   1.0571575      297.85162      2101.0644     -18392.154    
   5814000   1.0375002      304.93948      1336.3579     -18296.39     
   5815000   1.0308726      299.97007     -649.66644     -18348.797    
   5816000   1.0512481      283.09705      1833.0249     -18473.566    
   5817000   1.0348551      299.23356     -245.16165     -18338.576    
   5818000   1.0348248      287.70721     -993.01306     -18433.336    
   5819000   1.0446039      297.58246      578.80225     -18372.528    
   5820000   1.0394812      293.81548      1618.9265     -18408.103    
   5821000   1.0318845      302.55623     -2133.033      -18353.699    
   5822000   1.0445898      319.26571      1197.5687     -18217.844    
   5823000   1.0393237      313.52026     -625.03817     -18256.447    
   5824000   1.0296453      306.97999     -1007.0688     -18293.231    
   5825000   1.0375824      306.10147     -510.58761     -18327.83     
   5826000   1.0450501      289.07705      54.890011     -18426.41     
   5827000   1.0324278      287.36743     -883.68203     -18434.981    
   5828000   1.0308537      296.77943     -188.96901     -18363.961    
   5829000   1.0465904      301.45346      143.24423     -18357.629    
   5830000   1.0341793      298.84994     -44.490764     -18353.675    
   5831000   1.0311839      293.31807     -1028.4914     -18356.877    
   5832000   1.0478259      301.46549      515.13081     -18368.696    
   5833000   1.0356932      308.90348     -96.235616     -18267.257    
   5834000   1.0374645      301.58916     -238.47774     -18350.603    
   5835000   1.0419171      297.86216      47.988171     -18398.467    
   5836000   1.0384511      296.24871     -208.43873     -18353.736    
   5837000   1.0383971      295.2583       667.80518     -18354.63     
   5838000   1.0422539      300.36013      1611.6576     -18375.313    
   5839000   1.0383934      299.49943      106.76487     -18343.652    
   5840000   1.0342013      305.06095      63.560198     -18311.992    
   5841000   1.0399434      297.90564     -858.63706     -18366.568    
   5842000   1.0415695      292.82005      320.38755     -18412.895    
   5843000   1.0330427      294.58015      247.27409     -18391.524    
   5844000   1.0306461      298.38367     -969.54469     -18373.628    
   5845000   1.0439034      291.09763      66.205283     -18411.956    
   5846000   1.0407283      288.24904     -61.721295     -18456.324    
   5847000   1.0286886      303.33895     -1370.5854     -18316.238    
   5848000   1.0392359      286.99136      534.17208     -18422.522    
   5849000   1.0421084      302.15743      1200.1403     -18327.604    
   5850000   1.0383542      298.97616      643.54218     -18365.607    
   5851000   1.0403375      292.58517     -253.59463     -18374.434    
   5852000   1.0381739      308.1537       757.25548     -18296.865    
   5853000   1.0382872      288.58974     -475.24846     -18425.021    
   5854000   1.0377893      294.50527     -711.95238     -18353.614    
   5855000   1.0356769      302.64003      1157.5067     -18319.557    
   5856000   1.0456198      290.02959      218.05991     -18421.967    
   5857000   1.030765       281.38346     -524.03476     -18478.335    
   5858000   1.0349108      294.10406     -1448.4818     -18380.289    
   5859000   1.0465738      290.08925      622.27698     -18384.906    
   5860000   1.0358463      306.54557      294.91638     -18292.88     
   5861000   1.0381711      304.34197      528.78439     -18351.038    
   5862000   1.0473967      296.92679      1358.434      -18400.391    
   5863000   1.0347558      293.69667     -1098.784      -18403.171    
   5864000   1.0341252      296.87423      355.21813     -18367.76     
   5865000   1.0481669      304.53198      1119.6973     -18342.302    
   5866000   1.0343955      304.79085     -910.17911     -18326.702    
   5867000   1.0382401      300.71699     -675.05398     -18332.92     
   5868000   1.0403349      299.25117     -260.11002     -18370.071    
   5869000   1.0396331      300.22056      1956.8164     -18409.128    
   5870000   1.034488       291.76988     -649.86041     -18405.278    
   5871000   1.0373121      297.65946     -1153.4083     -18367.995    
   5872000   1.0371923      292.05431     -253.31773     -18429.925    
   5873000   1.0358727      295.63371     -92.03616      -18387.228    
   5874000   1.039808       296.3477       988.48807     -18396.2      
   5875000   1.0379068      299.80065     -185.55212     -18381.437    
   5876000   1.0294248      304.532       -1586.2935     -18312.069    
   5877000   1.0457483      293.71232      1440.3404     -18397.278    
   5878000   1.0372336      298.79399      328.92037     -18373.437    
   5879000   1.0300194      290.34894     -1231.3902     -18422.014    
   5880000   1.0482545      294.63919      1456.5587     -18419.631    
   5881000   1.0391009      293.34227      648.1932      -18409.296    
   5882000   1.0306729      300.83856     -990.39742     -18344.675    
   5883000   1.0412964      298.45471     -446.18441     -18338.134    
   5884000   1.036335       297.04682     -1240.4707     -18362.223    
   5885000   1.0355527      288.13419     -1460.4262     -18447.102    
   5886000   1.0394686      292.57017     -161.95244     -18411.568    
   5887000   1.0321692      287.73886     -1090.0193     -18431.99     
   5888000   1.0412942      297.00508     -10.52832      -18371.735    
   5889000   1.0367473      295.18749     -11.221052     -18356.743    
   5890000   1.0314495      299.9568      -1700.061      -18344.778    
   5891000   1.0419766      299.24207     -369.26227     -18348.409    
   5892000   1.0418043      291.50294      799.31085     -18411.733    
   5893000   1.0277966      304.25272     -538.49464     -18304.582    
   5894000   1.0398764      298.08372      108.92203     -18367.87     
   5895000   1.0487318      293.94467      1526.1644     -18381.091    
   5896000   1.0313231      295.25124     -523.4193      -18371.824    
   5897000   1.0395246      303.91543     -170.97089     -18319.587    
   5898000   1.0451389      306.13191      489.20272     -18316.633    
   5899000   1.0361721      290.93728     -37.339788     -18405.5      
   5900000   1.0371507      297.50358     -833.09965     -18375.647    
   5901000   1.0396504      307.5625       442.10824     -18302.744    
   5902000   1.0417195      290.4708       307.78254     -18436.979    
   5903000   1.0416971      292.0677       707.45229     -18425.509    
   5904000   1.0353856      298.93044     -818.02363     -18344.386    
   5905000   1.0384379      299.50452     -115.49756     -18332.001    
   5906000   1.0436481      294.65586      1600.3136     -18409.456    
   5907000   1.033606       296.49477     -334.29359     -18399.341    
   5908000   1.0343074      297.30614     -1057.4072     -18370.418    
   5909000   1.0446074      297.81343      1000.5151     -18347.502    
   5910000   1.0346501      284.25668      593.64214     -18450.98     
   5911000   1.0412654      292.34843      194.44748     -18409.962    
   5912000   1.0417612      287.23302      546.93235     -18446.858    
   5913000   1.0410121      301.39202      502.97834     -18344.482    
   5914000   1.0404633      294.92456      597.19479     -18394.046    
   5915000   1.0421855      293.91441      1002.2462     -18401.697    
   5916000   1.0329391      304.09142     -731.23918     -18326.601    
   5917000   1.0349306      308.16155     -885.88002     -18254.402    
   5918000   1.0460871      296.62059      530.97817     -18396.298    
   5919000   1.029452       289.07343     -1322.7008     -18425.197    
   5920000   1.0315271      298.84878     -652.05656     -18378.345    
   5921000   1.0509829      291.43488      538.10449     -18435.668    
   5922000   1.0343359      297.07646     -920.94594     -18369.51     
   5923000   1.0325718      318.93589      84.508432     -18231.394    
   5924000   1.0535481      319.73998      2209.7737     -18241.62     
   5925000   1.0310967      304.28902     -92.674373     -18336.562    
   5926000   1.034749       290.27931     -589.69852     -18444.322    
   5927000   1.0475628      303.59695      1571.2175     -18361.512    
   5928000   1.0246772      295.13268     -2118.8187     -18338.954    
   5929000   1.0445776      302.87426      222.5869      -18352.484    
   5930000   1.0448233      290.87649      681.62446     -18423.794    
   5931000   1.0280906      283.68995     -1204.709      -18422.76     
   5932000   1.0433008      290.43983      19.785115     -18472.011    
   5933000   1.0445839      304.34527      170.08255     -18321.268    
   5934000   1.024172       301.93539     -1555.8634     -18318.966    
   5935000   1.0399888      295.41964     -1177.3217     -18424.784    
   5936000   1.0472464      308.37039      595.16585     -18328.865    
   5937000   1.0367993      310.91983     -102.46953     -18315.323    
   5938000   1.0397183      292.58212      354.74786     -18416.669    
   5939000   1.0415322      298.11085      1212.6771     -18416.405    
   5940000   1.0439577      297.79422      1113.3056     -18405.341    
   5941000   1.0375376      299.1983       14.131235     -18382.551    
   5942000   1.0334113      303.26412     -2154.673      -18358.536    
   5943000   1.0478481      295.18759      812.50704     -18422.347    
   5944000   1.0400531      299.55384     -625.57975     -18406.9      
   5945000   1.0321305      297.82246      267.73868     -18378.419    
   5946000   1.0395142      293.3358      -105.90976     -18410.436    
   5947000   1.0444787      297.54775      688.18467     -18404.96     
   5948000   1.0322202      283.42694     -95.852442     -18504.033    
   5949000   1.0384009      301.10524     -212.19919     -18410.448    
   5950000   1.0457608      295.92485     -688.18036     -18420.413    
   5951000   1.0369976      306.55111      494.05218     -18329.296    
   5952000   1.0336228      298.62475     -1298.756      -18353.517    
   5953000   1.0543479      299.83592      1916.6913     -18428.916    
   5954000   1.0306806      290.18383     -1878.2008     -18438.877    
   5955000   1.0302845      313.15323     -1033.3924     -18275.964    
   5956000   1.0515578      314.11011      908.23137     -18293.717    
   5957000   1.0331776      293.47288      260.84898     -18395.91     
   5958000   1.0386583      295.76222     -212.01394     -18393.63     
   5959000   1.0479525      290.2564      -321.58526     -18461.996    
   5960000   1.031174       284.67644     -1174.418      -18461.729    
   5961000   1.0370617      291.35855     -201.17954     -18400.108    
   5962000   1.051266       287.80443      2174.3363     -18469.283    
   5963000   1.0392646      291.60495      140.91656     -18442.164    
   5964000   1.0352044      282.15435      383.08787     -18507.908    
   5965000   1.0480518      291.38443      623.23395     -18479.106    
   5966000   1.0418314      299.17034      694.31557     -18405.283    
   5967000   1.0323696      308.38405     -2426.8018     -18278.998    
   5968000   1.0372576      305.17025     -642.26516     -18340.088    
   5969000   1.0436212      297.41066      942.26388     -18385.862    
   5970000   1.0376951      303.89299     -175.45195     -18360.889    
   5971000   1.0463901      290.98601      1450.005      -18458.869    
   5972000   1.0352436      296.47349     -936.55366     -18396.391    
   5973000   1.0374759      289.54951     -1142.438      -18452.366    
   5974000   1.0426648      290.73205      499.86102     -18440.371    
   5975000   1.037736       295.61907     -718.00439     -18462.132    
   5976000   1.0373161      299.78335     -702.17708     -18371.141    
   5977000   1.045168       283.89273     -1069.9262     -18499.861    
   5978000   1.031524       292.91738     -1063.0075     -18409.691    
   5979000   1.0376488      297.49049      997.11183     -18397.367    
   5980000   1.0473507      293.12173      329.97839     -18435.667    
   5981000   1.032506       298.99233     -2015.1545     -18380.986    
   5982000   1.040549       300.10079      20.005331     -18371.756    
   5983000   1.0390956      290.96969     -747.15809     -18441.974    
   5984000   1.0366461      286.30591      196.0273      -18464.017    
   5985000   1.0442818      299.04072      459.06272     -18394.908    
   5986000   1.0415552      295.35736     -408.92492     -18428.21     
   5987000   1.0316852      290.25993     -1854.5259     -18429.95     
   5988000   1.0452894      289.38222      359.86869     -18447.956    
   5989000   1.0492302      297.49298      2450.0464     -18443.276    
   5990000   1.0296833      282.61926     -894.30448     -18458.109    
   5991000   1.0437437      295.23878      782.67431     -18417.444    
   5992000   1.0442509      286.01322      540.22394     -18488.765    
   5993000   1.0303032      277.60398     -889.61266     -18509.813    
   5994000   1.0434637      301.21558      524.99001     -18405.109    
   5995000   1.0447736      297.72924      1484.8116     -18392.088    
   5996000   1.0353855      313.22773      228.45355     -18299.38     
   5997000   1.0473322      291.01488      707.4729      -18459.049    
   5998000   1.0435384      297.51475      643.27018     -18407.723    
   5999000   1.0312033      309.40098     -660.81424     -18305.134    
   6000000   1.0413687      304.7384       623.36836     -18344.75     
   6001000   1.0449537      301.59111      1511.9499     -18389.892    
   6002000   1.037871       303.92299      551.18271     -18385.318    
   6003000   1.0352149      291.71437     -1098.3277     -18437.546    
   6004000   1.0395866      302.51557      103.30136     -18369.346    
   6005000   1.0448685      300.92813      1632.3237     -18376.541    
   6006000   1.0337063      300.95015     -58.023209     -18352.635    
   6007000   1.0445704      290.99512      1580.1373     -18468.294    
   6008000   1.0366079      298.47232     -20.814398     -18412.118    
   6009000   1.0415779      312.98377     -1051.0443     -18303.096    
   6010000   1.0347584      299.91997     -85.803028     -18380.04     
   6011000   1.0425718      301.60621      2317.9936     -18391.977    
   6012000   1.0437128      290.75583      817.36627     -18446.954    
   6013000   1.0305048      299.55048     -208.95275     -18382.977    
   6014000   1.0389367      289.16203     -841.60276     -18445.027    
   6015000   1.0460534      284.10334      521.03824     -18478.247    
   6016000   1.0363771      294.30907      65.294234     -18447.535    
   6017000   1.0385189      282.69383     -400.50706     -18476.994    
   6018000   1.0387197      283.88327     -305.84585     -18503.899    
   6019000   1.0409965      294.26129      580.15901     -18381.315    
   6020000   1.0425382      287.70536      331.40512     -18478.061    
   6021000   1.0312751      300.28767     -595.56413     -18390.372    
   6022000   1.0396415      298.42104     -378.13492     -18401.698    
   6023000   1.0418777      299.38339      248.65491     -18388.028    
   6024000   1.0357062      309.3014       1188.3384     -18296.177    
   6025000   1.0447988      303.2882       1027.5982     -18374.964    
   6026000   1.037161       296.52026      384.62006     -18428.375    
   6027000   1.0386626      305.11218     -249.21413     -18376.844    
   6028000   1.0471104      306.71619      1628.4507     -18367.485    
   6029000   1.0401467      289.38792      267.22558     -18473.598    
   6030000   1.0332715      310.27731     -799.73956     -18303.883    
   6031000   1.0452243      310.76049      1096.862      -18295.801    
   6032000   1.0394768      292.41647      981.23774     -18438.083    
   6033000   1.034798       279.32593      232.47963     -18509.996    
   6034000   1.0451359      293.15385      574.05386     -18441.016    
   6035000   1.0423537      294.4888      -541.81553     -18432.393    
   6036000   1.0304345      283.3364      -1136.4025     -18486.183    
   6037000   1.0393867      299.01412     -480.93016     -18400.441    
   6038000   1.0429954      324.47381      1100.8359     -18243.685    
   6039000   1.0382711      304.6959       774.85828     -18364.756    
   6040000   1.0442164      292.16628      1697.3928     -18466.756    
   6041000   1.039437       296.62932     -522.82807     -18405.168    
   6042000   1.0437421      295.20538      1013.4863     -18449.662    
   6043000   1.0365213      292.98609     -1942.7652     -18468.715    
   6044000   1.035563       303.94982     -355.05682     -18354.546    
   6045000   1.0403066      292.03456      37.802072     -18407.185    
   6046000   1.0462633      287.85177      1637.8407     -18501.871    
   6047000   1.0352279      300.32974      481.38579     -18398.207    
   6048000   1.0399286      303.24528      39.954813     -18378.599    
   6049000   1.0390757      293.3401      -372.73295     -18442.684    
   6050000   1.0417095      298.1186      -419.46879     -18418.724    
   6051000   1.0395046      289.56177      263.10941     -18472.196    
   6052000   1.0353662      280.1422      -355.85704     -18509.535    
   6053000   1.0395904      295.1722       21.633795     -18421.346    
   6054000   1.0427465      288.04136      768.47971     -18486.267    
   6055000   1.0394863      285.12473     -191.76865     -18509.409    
   6056000   1.035313       308.06596     -1223.0222     -18338.735    
   6057000   1.0388871      305.61161      727.30721     -18373.495    
   6058000   1.0467302      300.26862      426.498       -18412.128    
   6059000   1.0277533      293.31262     -1399.9345     -18383.862    
   6060000   1.0391378      301.89078     -304.15715     -18388.502    
   6061000   1.0479857      296.67991      1496.4325     -18410.901    
   6062000   1.0268477      298.46081     -2692.1207     -18374.652    
   6063000   1.0356114      298.75513     -912.08311     -18403.162    
   6064000   1.0469591      298.07437      597.18611     -18424.618    
   6065000   1.0291488      281.64612     -452.49744     -18466.936    
   6066000   1.0400924      308.98937      1083.8361     -18335.73     
   6067000   1.0472046      286.11739      1657.221      -18479.069    
   6068000   1.0386403      300.45973      158.64048     -18376.112    
   6069000   1.0318284      291.19595     -2274.8058     -18428.453    
   6070000   1.0446444      298.23997     -312.39083     -18405.478    
   6071000   1.0395556      299.56476      569.55867     -18412.997    
   6072000   1.0348747      307.25137     -6.4613986     -18337.009    
   6073000   1.044262       290.42733      1074.9241     -18441.102    
   6074000   1.0423935      293.69423      293.31756     -18421.575    
   6075000   1.0323619      294.98883     -1613.1528     -18374.527    
   6076000   1.0396045      301.27075      83.285148     -18361.877    
   6077000   1.0504851      298.53609      661.03621     -18409.833    
   6078000   1.0322346      303.14754     -724.27334     -18337.762    
   6079000   1.0359296      288.69569     -1428.6222     -18421.845    
   6080000   1.0516331      299.67816      1115.8461     -18392.634    
   6081000   1.0358711      297.86709     -579.62599     -18389.124    
   6082000   1.0317013      298.17491     -1065.4543     -18389.422    
   6083000   1.0463589      277.01807      379.33811     -18546.51     
   6084000   1.0378913      304.10492      162.78432     -18384.378    
   6085000   1.0355544      278.31061     -814.18792     -18506.988    
   6086000   1.0475989      308.92485      457.09765     -18299.605    
   6087000   1.0387885      310.0665      -5.7932302     -18327.803    
   6088000   1.0371191      288.61565      818.39885     -18477.725    
   6089000   1.0521784      292.35189      1802.6992     -18456.393    
   6090000   1.0343477      297.4571      -254.2031      -18375.91     
   6091000   1.0365936      295.92663     -236.65882     -18431.194    
   6092000   1.0531231      303.63369      417.94922     -18405.642    
   6093000   1.0302942      282.21436     -1780.8407     -18490.218    
   6094000   1.038371       301.79964      637.47285     -18380.998    
   6095000   1.0466125      302.91273      1501.2423     -18374.425    
   6096000   1.0421846      292.63384      935.66302     -18444.862    
   6097000   1.0342843      281.4592       171.46019     -18504.279    
   6098000   1.0454727      301.21372      402.30065     -18391.122    
   6099000   1.0474613      313.23615      674.4044      -18315.02     
   6100000   1.0385582      292.41306      278.84039     -18433.28     
   6101000   1.0443625      283.2047       1609.3499     -18484.639    
   6102000   1.0413253      313.34658      726.6386      -18313.74     
   6103000   1.0397759      295.35789      360.43985     -18412.803    
   6104000   1.0392338      292.25481     -115.88435     -18438.682    
   6105000   1.0463196      291.7796      -21.981271     -18463.775    
   6106000   1.034936       276.47769     -689.19633     -18534.971    
   6107000   1.0397879      302.5331      -506.0001      -18369.886    
   6108000   1.0394686      286.33944     -897.49967     -18473.66     
   6109000   1.0409893      309.35994      384.50427     -18344.415    
   6110000   1.0412045      305.01086     -239.25445     -18369.032    
   6111000   1.0420956      296.06728      1187.9228     -18403.316    
   6112000   1.0434319      308.49623      280.81633     -18344.081    
   6113000   1.040488       298.93852      685.4991      -18385.287    
   6114000   1.0395573      298.18835      482.30325     -18395.085    
   6115000   1.0446032      305.01359      1153.5161     -18374.569    
   6116000   1.0396392      289.44893     -37.471967     -18449.202    
   6117000   1.0375463      291.4987      -51.096965     -18467.529    
   6118000   1.0426881      310.36243     -865.85853     -18330.158    
   6119000   1.0360309      284.75985     -669.61161     -18436.544    
   6120000   1.0315848      286.88221     -1258.0228     -18450.558    
   6121000   1.0512318      308.8203       653.80237     -18355.874    
   6122000   1.0322154      299.56013     -139.7157      -18402.062    
   6123000   1.0379494      306.07658     -108.35939     -18360.398    
   6124000   1.0459422      295.10044     -971.66156     -18415.482    
   6125000   1.0356253      297.21308     -138.45168     -18403.038    
   6126000   1.037373       310.71563     -897.36147     -18292.439    
   6127000   1.0413355      298.85976     -263.661       -18385.352    
   6128000   1.0338516      300.54723     -348.04028     -18348.898    
   6129000   1.0449603      292.12502      1559.5881     -18404.247    
   6130000   1.0380663      306.03856      1261.2546     -18319.92     
   6131000   1.0340948      301.57044     -1138.1009     -18386.997    
   6132000   1.0493332      294.32277      1713.9899     -18458.128    
   6133000   1.0339601      290.1224      -574.59029     -18438.882    
   6134000   1.0380069      278.63327     -267.43474     -18562.119    
   6135000   1.0473358      267.34269     -174.77359     -18605.808    
   6136000   1.0348653      296.73556     -495.87968     -18401.662    
   6137000   1.0353289      289.34506     -294.33226     -18450.937    
   6138000   1.0434577      274.89605     -178.08666     -18541.17     
   6139000   1.0407473      284.26632     -784.64025     -18529.61     
   6140000   1.0361693      300.58362     -2.2398746     -18383.658    
   6141000   1.0433534      300.1911       698.56347     -18409.41     
   6142000   1.0389569      305.32905      7.367097      -18360.849    
   6143000   1.036295       306.60148      575.29817     -18341.305    
   6144000   1.046228       298.43198      1250.2292     -18457.389    
   6145000   1.040304       292.5486      -243.29405     -18464.655    
   6146000   1.0327223      296.46683     -1117.4755     -18393.45     
   6147000   1.0445436      315.94916     -450.46302     -18279.808    
   6148000   1.042295       308.77966     -575.4775      -18331.912    
   6149000   1.0315853      299.403       -1290.6936     -18364.917    
   6150000   1.0438278      279.47392     -514.08121     -18528.488    
   6151000   1.0397834      301.63301      331.48787     -18390.642    
   6152000   1.0373155      299.41576      212.0115      -18395.201    
   6153000   1.0463147      300.14859      122.69253     -18378.59     
   6154000   1.0305422      306.13384     -761.48357     -18343.595    
   6155000   1.0452116      294.06754      1014.7494     -18469.911    
   6156000   1.0424782      303.25696     -411.73524     -18400.404    
   6157000   1.0379309      301.53348     -151.37037     -18382.169    
   6158000   1.0366925      315.23562     -544.97012     -18294.218    
   6159000   1.0397598      306.61838      632.16763     -18353.125    
   6160000   1.0421478      302.03101      811.82913     -18378.959    
   6161000   1.0391682      307.29534     -139.77524     -18346.12     
   6162000   1.0412102      302.35967      354.6774      -18424.67     
   6163000   1.0399621      303.44786     -1904.2805     -18400.327    
   6164000   1.037198       308.68572     -373.15139     -18321.243    
   6165000   1.0466574      297.21713      1291.8423     -18404.365    
   6166000   1.0404304      301.36852      1192.4961     -18371.695    
   6167000   1.0371484      299.58208      605.10654     -18385.09     
   6168000   1.0424034      294.18686      1267.1225     -18423.956    
   6169000   1.0392645      311.10981      438.21253     -18344.221    
   6170000   1.0476689      284.7282       1382.9231     -18538.03     
   6171000   1.0405314      313.35688     -1298.8259     -18329.64     
   6172000   1.0334428      305.8292      -1587.7238     -18334.256    
   6173000   1.044252       299.47536      874.38015     -18417.695    
   6174000   1.04639        308.04259      1058.5393     -18360.699    
   6175000   1.0304237      306.49459     -513.77215     -18360.091    
   6176000   1.0403672      294.83348     -785.9278      -18423.048    
   6177000   1.0403615      301.9606      -1026.0859     -18382.903    
   6178000   1.0375055      306.82921     -225.46164     -18366.579    
   6179000   1.0362331      310.53879     -602.10339     -18329.232    
   6180000   1.0416361      289.47844      560.28524     -18466.651    
   6181000   1.0391853      303.25939      190.20976     -18342.166    
   6182000   1.040238       302.72502     -155.56247     -18380.847    
   6183000   1.0333537      306.29404     -1270.4833     -18363.27     
   6184000   1.0409912      299.50469     -722.43221     -18379.482    
   6185000   1.0456166      309.6833      -320.83614     -18350.729    
   6186000   1.0333298      299.40126     -271.95554     -18383.89     
   6187000   1.037327       308.39142      788.52515     -18365.288    
   6188000   1.0505821      284.27814      171.57073     -18531.776    
   6189000   1.0369866      292.14659     -888.9033      -18414.753    
   6190000   1.0291636      299.12245     -733.89539     -18379.017    
   6191000   1.0513688      289.71245      1226.4653     -18441.839    
   6192000   1.042116       300.16144      437.12307     -18376.944    
   6193000   1.0354714      294.32892      216.36059     -18433.425    
   6194000   1.0470008      298.55637      956.05285     -18409.717    
   6195000   1.0403462      276.80302     -50.829281     -18530.19     
   6196000   1.0363446      282.31985     -481.45486     -18506.872    
   6197000   1.0441497      299.55529     -310.08986     -18404.443    
   6198000   1.0411477      301.05524     -375.24356     -18370.644    
   6199000   1.0379504      293.86549     -584.40604     -18408.75     
   6200000   1.0407291      292.83034      942.26385     -18429.821    
   6201000   1.0420986      291.33629     -1403.0999     -18452.841    
   6202000   1.0361099      287.98631     -1270.814      -18464.075    
   6203000   1.0360779      300.48998     -962.0943      -18356.468    
   6204000   1.0475969      301.45041      455.79786     -18409.344    
   6205000   1.0371943      295.57263     -952.26294     -18420.96     
   6206000   1.0391874      298.72949      318.21973     -18377.781    
   6207000   1.0415024      291.54543      437.91476     -18440.084    
   6208000   1.0381982      295.54098      332.85279     -18417.964    
   6209000   1.0415736      295.27783      727.13421     -18452.954    
   6210000   1.0376556      303.26774     -150.8468      -18384.139    
   6211000   1.0387778      289.08822     -533.28594     -18445.193    
   6212000   1.0410753      300.01432      292.20095     -18344.148    
   6213000   1.0434342      293.5561       422.79453     -18464.552    
   6214000   1.0341156      294.5995      -539.99917     -18425.359    
   6215000   1.0447513      294.61412     -467.54808     -18460.131    
   6216000   1.0441526      291.65872     -156.18589     -18436.317    
   6217000   1.038643       283.25517     -161.87908     -18491.194    
   6218000   1.0368605      314.6581      -1602.6596     -18290.097    
   6219000   1.0486002      300.10671      567.538       -18438.128    
   6220000   1.0344184      297.38488     -743.29622     -18381.754    
   6221000   1.0388117      318.81291      764.925       -18277.155    
   6222000   1.0544961      287.30045      3715.869      -18505.312    
   6223000   1.0410646      307.17874      763.63169     -18377.819    
   6224000   1.0348269      304.41427      253.47146     -18334.091    
   6225000   1.0527043      293.97717     -84.852468     -18460.741    
   6226000   1.0343021      291.20101     -315.70087     -18467.975    
   6227000   1.0376942      310.09208      369.96231     -18340.632    
   6228000   1.0487059      290.46694      573.99829     -18455.424    
   6229000   1.0391096      300.1284      -172.35961     -18382.119    
   6230000   1.0308462      294.22299     -837.20286     -18400.513    
   6231000   1.0488699      294.19121      1032.4479     -18445.641    
   6232000   1.0376731      293.32475     -595.75633     -18419.847    
   6233000   1.0336139      297.66217     -1285.5714     -18421.346    
   6234000   1.0392531      294.9741      -1100.157      -18446.003    
   6235000   1.0437921      302.8797       585.20955     -18402.496    
   6236000   1.0389412      288.13638      230.04703     -18487.322    
   6237000   1.0377477      295.22836      26.849221     -18448.075    
   6238000   1.041778       297.51575     -1235.9084     -18407.999    
   6239000   1.0417574      300.61696      1561.4619     -18410.692    
   6240000   1.0371946      304.88589      457.57079     -18345.154    
   6241000   1.0452901      290.53567     -161.05646     -18464.35     
   6242000   1.037206       291.97018     -374.53447     -18451.505    
   6243000   1.033739       296.71622     -501.40086     -18436.125    
   6244000   1.0474385      301.72234      349.47859     -18355.283    
   6245000   1.0344727      312.25323     -1514.8643     -18296.12     
   6246000   1.0349806      289.5629      -698.79949     -18432.35     
   6247000   1.0495911      289.82004      1200.1147     -18471.641    
   6248000   1.0350232      290.84947     -163.42238     -18463.416    
   6249000   1.0349639      298.73246     -1654.0111     -18425.076    
   6250000   1.0485151      287.45084      793.20819     -18478.891    
   6251000   1.0331114      303.0826      -404.91496     -18379.189    
   6252000   1.0342608      308.27994     -574.01016     -18337.664    
   6253000   1.0519902      296.35491      843.3047      -18428.935    
   6254000   1.0358231      306.59484     -555.34169     -18368.522    
   6255000   1.0359541      292.33543     -241.87207     -18459.019    
   6256000   1.0479         284.77032      1774.4706     -18514.475    
   6257000   1.0323357      295.55773     -1088.224      -18436.07     
   6258000   1.0406021      309.88814     -996.10272     -18357.211    
   6259000   1.0421814      292.59205      771.01992     -18402.501    
   6260000   1.0361035      286.76059      655.61439     -18481.319    
   6261000   1.0405748      303.84194      396.18233     -18388.04     
   6262000   1.0355397      303.10361     -400.73598     -18396.923    
   6263000   1.0369588      297.00593     -94.621236     -18418.196    
   6264000   1.0446842      292.62849      889.95393     -18480.934    
   6265000   1.0336416      291.8666      -1203.4419     -18469.526    
   6266000   1.0302025      284.32686     -1127.4352     -18504.861    
   6267000   1.0463276      293.298        972.83293     -18470.94     
   6268000   1.0404772      292.0793       1000.6308     -18473.729    
   6269000   1.0281849      301.19613     -90.910962     -18371.699    
   6270000   1.044298       297.7888       1471.3646     -18430.511    
   6271000   1.0434115      318.25471      1420.9022     -18279.024    
   6272000   1.0260447      305.68869     -519.11609     -18344.199    
   6273000   1.0464225      301.36661      1232.2982     -18409.956    
   6274000   1.047153       299.58425      402.27158     -18444.411    
   6275000   1.0221306      301.24928     -1431.7059     -18372.99     
   6276000   1.0482384      304.76504      867.94081     -18425.697    
   6277000   1.0406656      295.23909     -817.07744     -18449.13     
   6278000   1.0295229      304.17316     -1532.052      -18376.394    
   6279000   1.0500921      295.36231      968.08529     -18474.192    
   6280000   1.0407453      281.51962     -356.6816      -18567.258    
   6281000   1.0260266      301.08476     -1646.6318     -18401.656    
   6282000   1.043753       304.50308     -505.74931     -18389.652    
   6283000   1.0392436      302.80801     -267.06293     -18367.397    
   6284000   1.0291288      299.28076     -781.60072     -18391.035    
   6285000   1.0449645      306.12109      689.68754     -18390.073    
   6286000   1.0413753      304.80359      165.20462     -18394.826    
   6287000   1.0307386      301.81039     -710.3103      -18375.435    
   6288000   1.0434268      293.14672      297.86826     -18453.247    
   6289000   1.0372939      287.23824      156.93936     -18502.204    
   6290000   1.0327872      305.34827     -1551.705      -18354.333    
   6291000   1.0421357      294.30958      972.44635     -18455.374    
   6292000   1.0366515      302.82666      391.00099     -18369.54     
   6293000   1.0387375      299.95215      512.67433     -18426.643    
   6294000   1.0420565      298.29401      281.23357     -18443.688    
   6295000   1.0343145      289.87877     -243.21449     -18441.73     
   6296000   1.0386401      303.76378      402.57745     -18388.184    
   6297000   1.0407431      289.25504      212.10222     -18480.026    
   6298000   1.0395207      294.39973     -930.90492     -18436.601    
   6299000   1.0365787      287.27404     -179.54575     -18492.443    
   6300000   1.0447668      294.4137       576.26173     -18477.455    
   6301000   1.0370107      301.93413     -864.10122     -18400.75     
   6302000   1.0337022      288.88685     -1056.087      -18475.109    
   6303000   1.0444867      287.79272     -263.72558     -18472.656    
   6304000   1.0272546      284.28191     -2224.7784     -18488.245    
   6305000   1.0337656      296.67309     -290.91869     -18417.545    
   6306000   1.0474315      297.80672      1878.973      -18426.796    
   6307000   1.0355072      281.46913      156.17444     -18536.722    
   6308000   1.0330175      297.55772     -331.00135     -18402.138    
   6309000   1.0485729      294.83161      588.38503     -18463.443    
   6310000   1.0331705      281.92729     -35.403487     -18508.254    
   6311000   1.0348107      286.82128      694.47838     -18489.615    
   6312000   1.0463869      286.14532      1679.6327     -18494.519    
   6313000   1.03341        288.48528     -532.67573     -18475.617    
   6314000   1.0316331      295.71133     -885.88902     -18453.6      
   6315000   1.0491476      294.62653      2297.9017     -18466.74     
   6316000   1.0343005      285.00971      436.00058     -18479.913    
   6317000   1.0322258      287.91109      701.31027     -18469.681    
   6318000   1.044345       320.42884      1297.9282     -18274.624    
   6319000   1.038188       295.67183      1281.573      -18428.754    
   6320000   1.0332122      300.57247      138.55709     -18416.417    
   6321000   1.0435676      292.62852      514.61962     -18460.349    
   6322000   1.0284387      294.41365     -1960.82       -18460.021    
   6323000   1.0375645      301.65249      82.841245     -18421.845    
   6324000   1.0473377      297.65212      1871.9376     -18475.836    
   6325000   1.0354013      302.67325      546.08312     -18408.532    
   6326000   1.0318354      288.31447     -426.91424     -18498.819    
   6327000   1.0392896      293.11847      768.01803     -18501.049    
   6328000   1.0281898      304.96528     -1286.3399     -18382.082    
   6329000   1.0331828      286.53782     -244.43095     -18483.16     
   6330000   1.0512391      299.13692      2093.8714     -18473.814    
   6331000   1.0331789      298.41968     -816.95047     -18408.136    
   6332000   1.0313159      273.99707     -670.35552     -18567.116    
   6333000   1.0465825      280.16155      1626.6925     -18552.54     
   6334000   1.0409394      288.33581     -306.37218     -18497.485    
   6335000   1.0291006      310.6428      -116.39217     -18354.67     
   6336000   1.0394792      296.24338      322.71252     -18460.437    
   6337000   1.0429929      292.83292     -496.05188     -18489.332    
   6338000   1.0348006      300.28985      386.23933     -18432.798    
   6339000   1.0319313      294.96363     -1781.0759     -18452.104    
   6340000   1.0397282      289.1846      -281.98623     -18464.82     
   6341000   1.042898       289.28039      1402.9206     -18481.425    
   6342000   1.0390875      283.04825      626.96426     -18508.148    
   6343000   1.0337228      299.70042     -1221.8844     -18396.838    
   6344000   1.0415979      302.58901      317.31759     -18400.833    
   6345000   1.0419586      289.46916      129.70175     -18484.163    
   6346000   1.033213       297.60671     -303.26202     -18434.414    
   6347000   1.0325225      303.3096      -1372.7515     -18353.033    
   6348000   1.0388367      291.20445     -753.14545     -18443.368    
   6349000   1.0427993      287.65963      601.12064     -18481.334    
   6350000   1.0348939      273.16822     -1098.3738     -18588.415    
   6351000   1.0381496      312.67041      314.29951     -18326.096    
   6352000   1.0431633      303.91618      1274.8234     -18369.414    
   6353000   1.038755       294.81117      1493.7727     -18453.482    
   6354000   1.0394183      294.82898      322.51016     -18476.769    
   6355000   1.0413366      285.6626       464.84085     -18524.882    
   6356000   1.0413794      275.50383     -646.35945     -18564.303    
   6357000   1.0349311      308.23812      456.70118     -18310.08     
   6358000   1.0378343      298.7361       238.70898     -18406.448    
   6359000   1.043116       297.2351       930.79853     -18442.776    
   6360000   1.0311379      298.11628     -461.9661      -18405.713    
   6361000   1.0483838      307.18906      2392.2064     -18412.664    
   6362000   1.0456365      292.52184     -96.90259      -18462.633    
   6363000   1.029234       293.79598     -1654.8875     -18420.839    
   6364000   1.0408897      293.23811      331.42664     -18440.548    
   6365000   1.0489188      288.57185      1126.6296     -18500.177    
   6366000   1.0316873      287.98509     -757.8446      -18462.343    
   6367000   1.0365292      278.81646     -130.4217      -18532.477    
   6368000   1.0504659      280.70162      790.26682     -18543.244    
   6369000   1.0295468      297.58947     -1535.4536     -18380.287    
   6370000   1.0450632      297.8753       492.74892     -18436.004    
   6371000   1.0382489      294.1767      -723.10977     -18415.94     
   6372000   1.0325352      294.30486     -1637.2781     -18438.268    
   6373000   1.0413772      296.13384      100.02087     -18432.84     
   6374000   1.0486087      297.15539      1208.875      -18434.033    
   6375000   1.0349736      288.2596      -313.03315     -18478.656    
   6376000   1.035931       290.05224      103.68559     -18499.119    
   6377000   1.0506688      300.17059      1596.7781     -18458.418    
   6378000   1.0281076      307.39526     -1460.4175     -18338.563    
   6379000   1.0344516      282.30279     -191.65831     -18527.968    
   6380000   1.0513632      298.20468      1270.104      -18469.674    
   6381000   1.0342636      291.92758     -1562.0808     -18442.468    
   6382000   1.0310242      296.19984      199.46602     -18420.056    
   6383000   1.047387       310.62782      2330.5555     -18344.655    
   6384000   1.0426878      294.76126      403.42058     -18429.614    
   6385000   1.0322961      287.60447     -1304.2168     -18467.926    
   6386000   1.0337203      294.72213     -1409.6683     -18436.474    
   6387000   1.0395165      305.57063      391.08918     -18378.834    
   6388000   1.041416       317.97476     -252.07013     -18293.865    
   6389000   1.0361238      298.08825      582.56554     -18398.875    
   6390000   1.0310508      311.87978     -1009.4092     -18300.077    
   6391000   1.0414607      307.59008      537.56988     -18318.493    
   6392000   1.0452799      310.02959      790.81103     -18346.867    
   6393000   1.0307674      298.27563     -622.89114     -18400.719    
   6394000   1.0378943      294.54377     -396.69915     -18433.622    
   6395000   1.044522       295.1587       367.59598     -18473.524    
   6396000   1.0326318      283.10928      542.51292     -18521.711    
   6397000   1.0359834      298.59518     -625.44739     -18438.583    
   6398000   1.0424126      305.06818     -647.03798     -18349.744    
   6399000   1.0417056      298.19853      1665.1164     -18410.877    
   6400000   1.0309566      294.10801     -711.32959     -18449.557    
   6401000   1.0391674      307.25826     -504.98021     -18383.526    
   6402000   1.0475724      301.59998      1588.5032     -18401.953    
   6403000   1.0320162      288.57857      396.13918     -18472.918    
   6404000   1.0425494      295.13335      333.475       -18457.894    
   6405000   1.0427093      298.04149      651.94065     -18429.411    
   6406000   1.0327411      293.91355     -9.6467831     -18466.763    
   6407000   1.0388798      298.95693      1.327076      -18470.032    
   6408000   1.0464786      288.88748      202.01637     -18525.742    
   6409000   1.0288267      304.2237      -741.01636     -18356.653    
   6410000   1.0350366      293.36191     -1308.555      -18451.344    
   6411000   1.043741       301.4599       300.00063     -18369.943    
   6412000   1.0324776      298.50116      33.300794     -18400.187    
   6413000   1.0344292      287.21089     -425.46052     -18500.61     
   6414000   1.0461094      292.4252      -106.78797     -18492.399    
   6415000   1.0385392      294.73986     -1203.1354     -18460.685    
   6416000   1.0337756      310.11777     -128.27005     -18337.309    
   6417000   1.0431006      291.2337       2117.8745     -18440.456    
   6418000   1.0457603      304.00495      1741.0702     -18392.086    
   6419000   1.0346336      299.71162      62.709436     -18409.857    
   6420000   1.0401804      312.00336      736.99788     -18318.785    
   6421000   1.045199       293.35714      2176.1966     -18455.103    
   6422000   1.0299043      299.21929     -1658.2029     -18405.662    
   6423000   1.0422179      305.96549     -395.45283     -18345.143    
   6424000   1.0419935      314.66156     -647.78533     -18336.894    
   6425000   1.0262881      305.78084     -1981.798      -18361.535    
   6426000   1.0486299      296.52889      1428.9499     -18468.152    
   6427000   1.0406588      285.13132      242.09779     -18501.877    
   6428000   1.0299645      296.37336     -971.09538     -18430.723    
   6429000   1.0447223      295.2032       719.89499     -18447.669    
   6430000   1.0368913      285.68104     -447.43572     -18498.304    
   6431000   1.0329898      289.78023     -835.22202     -18437.285    
   6432000   1.0465233      307.50417      1044.7249     -18375.491    
   6433000   1.0369277      299.79915      176.58795     -18443.985    
   6434000   1.0358687      309.76802     -805.53569     -18360.535    
   6435000   1.0378608      297.92563     -390.27899     -18431.823    
   6436000   1.0408471      307.07477      547.28803     -18358.077    
   6437000   1.039251       302.47298      1389.5901     -18409.946    
   6438000   1.0392388      290.61718      581.59896     -18470.965    
   6439000   1.0407798      286.27351      1220.4913     -18517.91     
   6440000   1.0384946      309.22753      997.7167      -18348.694    
   6441000   1.0360158      296.61891      156.586       -18421.538    
   6442000   1.0402375      299.73445      37.554217     -18417.845    
   6443000   1.0417178      301.70213     -338.51754     -18401.938    
   6444000   1.0346344      299.60501     -1533.5707     -18415.444    
   6445000   1.031892       305.82247     -1184.3049     -18355.369    
   6446000   1.0434738      294.31561     -151.43892     -18467        
   6447000   1.0410676      293.62057      570.34272     -18488.103    
   6448000   1.0311405      289.13319     -1255.207      -18491.775    
   6449000   1.0400857      302.27309     -552.25676     -18421.019    
   6450000   1.0419518      312.48541      380.53128     -18344.525    
   6451000   1.0263439      304.00884     -1528.9387     -18378.406    
   6452000   1.0452984      301.67526      1146.7564     -18416.883    
   6453000   1.0410327      299.94798      909.23143     -18449.529    
   6454000   1.0260027      298.46059     -237.39933     -18418.288    
   6455000   1.0519112      292.27512      1803.5822     -18482.429    
   6456000   1.0442282      289.26967      569.94792     -18525.76     
   6457000   1.0244095      294.32851     -2169.9386     -18425.538    
   6458000   1.0455731      293.81638     -773.72095     -18474.797    
   6459000   1.0356232      293.78562     -429.1673      -18457.577    
   6460000   1.0290887      299.36324     -51.196958     -18401.736    
   6461000   1.044769       297.64175     -295.7789      -18398.469    
   6462000   1.0423695      299.4393       404.73681     -18417.757    
   6463000   1.0341833      295.17646     -680.34888     -18410.706    
   6464000   1.0380857      313.58398      247.65653     -18307.879    
   6465000   1.0412246      292.24205      903.34242     -18457.717    
   6466000   1.0351892      297.86686     -699.90194     -18436.756    
   6467000   1.0348723      319.65424     -727.92062     -18235.799    
   6468000   1.0395263      296.58124      558.43189     -18459.483    
   6469000   1.0360877      296.086        385.03149     -18427.084    
   6470000   1.0399961      275.19143      1747.9728     -18587.964    
   6471000   1.0367656      286.9378      -218.5437      -18513.867    
   6472000   1.0343792      308.16429     -100.41994     -18341.272    
   6473000   1.0416707      312.73073      260.27576     -18313.159    
   6474000   1.035553       287.57308     -162.94862     -18474.288    
   6475000   1.0341743      311.0648      -269.27212     -18347.865    
   6476000   1.0405663      292.40657      191.03959     -18463.087    
   6477000   1.0427192      288.67393     -114.43468     -18486.053    
   6478000   1.0303388      308.87614     -1045.9691     -18341.738    
   6479000   1.0394382      313.89221     -637.22124     -18291.48     
   6480000   1.0415823      306.06739      1053.1238     -18378.266    
   6481000   1.0422693      302.87875      1013.9096     -18351.909    
   6482000   1.0372101      300.4229       994.46924     -18382.92     
   6483000   1.0445413      305.56481      191.90003     -18380.739    
   6484000   1.0405974      304.76291      517.37344     -18373.191    
   6485000   1.0329718      296.75662     -1027.0644     -18445.609    
   6486000   1.0455986      299.21386      1359.6918     -18454.03     
   6487000   1.0403887      292.50605     -717.11917     -18473.293    
   6488000   1.0254463      303.04081     -506.79621     -18357.637    
   6489000   1.0416381      284.95803      1375.6277     -18535.797    
   6490000   1.0516077      315.07936      1062.7607     -18347.366    
   6491000   1.0260159      285.96966     -1402.5637     -18475.654    
   6492000   1.0327007      289.95169     -1156.7047     -18457.531    
   6493000   1.0543999      288.29894      1155.9011     -18492.401    
   6494000   1.0317919      289.66093     -827.84546     -18477.265    
   6495000   1.0319676      307.99585      316.12958     -18350.188    
   6496000   1.0511464      294.00207      1327.0225     -18485.373    
   6497000   1.0338215      290.62476     -813.07535     -18461.539    
   6498000   1.0314863      303.50519     -1505.6154     -18361.669    
   6499000   1.0448751      310.67433     -782.51448     -18320.016    
   6500000   1.0340379      309.35276      286.54623     -18348.243    
   6501000   1.0380442      285.71609     -606.27555     -18480.31     
   6502000   1.0414221      292.53337      725.9679      -18455.068    
   6503000   1.0299951      287.45246     -163.88581     -18499.024    
   6504000   1.0401266      300.00058      1231.7898     -18401.571    
   6505000   1.0391632      298.77697     -774.76381     -18400.295    
   6506000   1.0348024      310.29        -224.72299     -18323.583    
   6507000   1.0407937      288.64291      374.8135      -18471.413    
   6508000   1.0439189      303.62624      730.7189      -18393.591    
   6509000   1.0269927      319.05634     -214.07846     -18271.981    
   6510000   1.0446068      292.05906      1087.4833     -18458.695    
   6511000   1.0440488      308.57384      632.60562     -18359.426    
   6512000   1.0333196      308.33177      297.37111     -18359.069    
   6513000   1.0375253      298.32511      93.579903     -18427.282    
   6514000   1.0492123      274.33334      1734.964      -18621.662    
   6515000   1.031516       286.64135     -1888.9311     -18500.652    
   6516000   1.0344353      296.82957     -1051.6349     -18413.984    
   6517000   1.0411703      297.87434      135.33564     -18445.896    
   6518000   1.0350088      295.08509     -623.30982     -18437.853    
   6519000   1.0429044      303.76079     -6.7752608     -18394.18     
   6520000   1.0423702      311.8785      -509.49348     -18343.382    
   6521000   1.03069        303.17523     -971.01096     -18381.759    
   6522000   1.0412455      292.83455      82.340532     -18464.686    
   6523000   1.0461247      311.18282      482.97977     -18359.675    
   6524000   1.0278488      295.91671     -946.53162     -18416.799    
   6525000   1.0422246      303.46304      385.13871     -18394.274    
   6526000   1.0515099      296.99295      1970.4002     -18462.754    
   6527000   1.0260443      299.38652     -777.70444     -18353.898    
   6528000   1.0415763      301.80724     -139.88272     -18403.768    
   6529000   1.0480478      305.03         229.25927     -18379.485    
   6530000   1.0342017      292.98242      125.24886     -18395.081    
   6531000   1.0384778      302.75698     -139.96834     -18355.722    
   6532000   1.0516641      310.6812       1742.572      -18338.836    
   6533000   1.0342727      293.24184     -748.34425     -18460.668    
   6534000   1.0392102      283.71452     -780.7759      -18515.457    
   6535000   1.0464197      299.15887      778.78698     -18415.997    
   6536000   1.0337479      288.82602     -1234.5076     -18440.981    
   6537000   1.0437873      297.22942      807.57311     -18424.016    
   6538000   1.0475364      302.47618      1149.192      -18400.482    
   6539000   1.0344173      302.86988      144.79416     -18357.909    
   6540000   1.0467495      292.08141      1707.6993     -18486.775    
   6541000   1.0434877      303.0073      -412.66428     -18378.097    
   6542000   1.0322549      294.68987     -1033.0524     -18425.51     
   6543000   1.0411972      285.41223     -580.08573     -18479.609    
   6544000   1.0445626      302.74585      535.36553     -18399.859    
   6545000   1.0366479      312.49745      1011.3531     -18308.02     
   6546000   1.0411931      300.68623      1060.2907     -18402.302    
   6547000   1.0414511      311.28585      693.48806     -18322.26     
   6548000   1.0319532      303.82278     -1211.8852     -18386.461    
   6549000   1.0391344      311.09294     -547.97435     -18346.366    
   6550000   1.0440183      306.56642     -601.37094     -18376.414    
   6551000   1.0366912      300.4082      -406.66815     -18383.186    
   6552000   1.0353488      309.50649     -1225.0096     -18331.218    
   6553000   1.0435383      303.06341     -81.624245     -18406.951    
   6554000   1.0414829      314.5985      -240.23933     -18299.103    
   6555000   1.0338621      302.54979     -624.98522     -18368.81     
   6556000   1.0445338      294.13871      645.71912     -18455.628    
   6557000   1.0445809      306.39864      1470.7417     -18372.336    
   6558000   1.0305463      290.17171     -877.52827     -18478.385    
   6559000   1.0476467      296.6685      -14.944115     -18488.401    
   6560000   1.0423975      292.21872      464.20734     -18479.606    
   6561000   1.0353665      293.69379     -707.52756     -18429.484    
   6562000   1.0375803      300.64814     -519.4329      -18396.234    
   6563000   1.0403251      302.64491     -366.75136     -18406.17     
   6564000   1.0387549      294.56233     -85.825008     -18446.955    
   6565000   1.0351479      311.26278     -896.2504      -18321.693    
   6566000   1.0456214      294.62507      1431.4248     -18470.454    
   6567000   1.0447463      284.4663       522.05718     -18582.021    
   6568000   1.0303441      287.167       -2012.397      -18510.618    
   6569000   1.0362601      304.12043     -1703.1407     -18370.28     
   6570000   1.0460438      300.27339     -445.87122     -18428.786    
   6571000   1.0365416      300.16815      544.09709     -18395.078    
   6572000   1.0335655      301.71151      159.47803     -18416.272    
   6573000   1.0555559      305.03037      1868.6915     -18440.262    
   6574000   1.0372947      310.34755     -187.47065     -18370.903    
   6575000   1.0278184      301.36542     -1018.3672     -18408.781    
   6576000   1.0537908      297.81982      2093.6406     -18480.07     
   6577000   1.0426509      284.28129      844.62823     -18526.155    
   6578000   1.0322487      275.28809     -871.1968      -18563.903    
   6579000   1.0409799      292.97883     -938.62413     -18474.415    
   6580000   1.0375578      281.7455      -910.75909     -18516.343    
   6581000   1.0391602      295.43884      721.63224     -18440.677    
   6582000   1.0376153      294.1628       1266.3139     -18430.553    
   6583000   1.0440341      292.18507      592.80574     -18461.554    
   6584000   1.0398961      287.02215     -203.93339     -18498.188    
   6585000   1.0314078      301.27529     -1404.2205     -18380.87     
   6586000   1.0421577      297.28582     -103.59504     -18419.517    
   6587000   1.0467032      291.70521      626.08277     -18489.087    
   6588000   1.0284935      291.08242     -985.62002     -18445.172    
   6589000   1.0438474      289.418        268.11108     -18510.715    
   6590000   1.041714       286.78097     -175.2324      -18505.38     
   6591000   1.0364007      305.36253     -1184.634      -18376.576    
   6592000   1.0413072      316.16733      640.28385     -18309.554    
   6593000   1.0410885      299.52089      784.43882     -18425.625    
   6594000   1.0378093      294.97371     -440.81406     -18438.494    
   6595000   1.0394552      310.60512     -1338.3235     -18371.422    
   6596000   1.0385281      302.01948     -37.346301     -18389.868    
   6597000   1.0422548      302.7564       2.6131817     -18385.061    
   6598000   1.0374495      305.95006      398.60808     -18378.469    
   6599000   1.0374416      294.67488     -481.18961     -18478.327    
   6600000   1.0432632      296.53474     -205.8317      -18457.594    
   6601000   1.0399758      314.51455     -440.21147     -18299.835    
   6602000   1.0320331      305.62057     -948.15018     -18369.034    
   6603000   1.0468965      310.78864      2437.4682     -18390.426    
   6604000   1.0444785      304.64768      1783.7944     -18402.52     
   6605000   1.0351001      296.29196      891.87021     -18434.171    
   6606000   1.0472108      299.46063      1691.0255     -18431.681    
   6607000   1.0444246      303.52007      839.45744     -18406.447    
   6608000   1.0306567      297.48883     -1424.3355     -18425.36     
   6609000   1.040818       312.07348      342.09926     -18318.232    
   6610000   1.0486459      297.366        1109.7457     -18434.687    
   6611000   1.034397       290.91403     -1003.9217     -18486.281    
   6612000   1.0400482      294.49898     -510.10243     -18443.825    
   6613000   1.0433024      291.386        244.46198     -18479.764    
   6614000   1.0424204      295.07918      406.67121     -18461.113    
   6615000   1.0388392      294.67388     -265.35689     -18453.909    
   6616000   1.0414109      305.49686      28.614309     -18401.957    
   6617000   1.038751       302.31001      631.5019      -18407.185    
   6618000   1.0422193      294.56729      701.2669      -18467.957    
   6619000   1.0413598      289.72044      867.57561     -18474.59     
   6620000   1.0289985      284.75498     -1641.663      -18481.493    
   6621000   1.042628       303.38068     -147.04796     -18373.251    
   6622000   1.0473321      292.59424      778.02123     -18470.115    
   6623000   1.0324435      305.69205     -174.28015     -18374.092    
   6624000   1.0314073      302.41253     -670.5862      -18412.577    
   6625000   1.0510369      292.77693      782.52497     -18466.88     
   6626000   1.0375596      298.47542      537.7696      -18401.543    
   6627000   1.0373518      293.20523     -384.35806     -18455.033    
   6628000   1.0438456      311.2952       867.62081     -18349.808    
   6629000   1.0423249      304.87127      902.95621     -18394.349    
   6630000   1.0321793      285.93983     -516.08408     -18486.889    
   6631000   1.0455331      293.22787     -159.73397     -18496.879    
   6632000   1.0371421      294.11346      284.56236     -18443.603    
   6633000   1.0363505      301.41243     -353.59972     -18410.312    
   6634000   1.0463258      297.48179      681.66538     -18431.169    
   6635000   1.0376704      312.36169     -570.22037     -18285.309    
   6636000   1.0335458      310.74397     -688.61161     -18343.729    
   6637000   1.0463518      304.52635      843.66983     -18386.601    
   6638000   1.040124       299.83094     -673.32219     -18442.453    
   6639000   1.0284358      301.22268     -1523.0133     -18393.913    
   6640000   1.0391121      304.95254     -974.79814     -18356.298    
   6641000   1.0522411      295.41115      1388.1937     -18456.405    
   6642000   1.0297279      301.2515      -251.7367      -18392.716    
   6643000   1.0420416      294.89254      554.96386     -18454.091    
   6644000   1.042749       305.81782     -37.453421     -18368.511    
   6645000   1.0303381      306.9173      -1074.3796     -18331.823    
   6646000   1.0425907      295.96453     -247.06776     -18447.035    
   6647000   1.0432901      289.62084      975.24773     -18506.851    
   6648000   1.0292614      302.17259     -1055.3446     -18411.731    
   6649000   1.0398548      296.18826     -358.17275     -18419.69     
   6650000   1.0424039      309.87488     -123.97336     -18361.187    
   6651000   1.0308459      302.37896     -855.6559      -18369.881    
   6652000   1.0417785      312.66595      185.05712     -18338.056    
   6653000   1.0450486      298.24207      210.54092     -18440.845    
   6654000   1.027253       285.91348     -1127.7801     -18464.356    
   6655000   1.0464933      303.11121      865.79627     -18404.989    
   6656000   1.0383855      300.44975      180.392       -18441.486    
   6657000   1.0357858      299.94307     -374.09943     -18430.477    
   6658000   1.0428201      302.86978      269.69495     -18385.886    
   6659000   1.0435537      305.94877      486.31217     -18396.168    
   6660000   1.0337087      313.07606     -112.24134     -18301.352    
   6661000   1.0428846      288.02875     -1111.5677     -18504.353    
   6662000   1.0421273      312.34688      752.7312      -18341.694    
   6663000   1.0348023      296.9813      -503.29313     -18444.374    
   6664000   1.0431441      302.00968     -100.37354     -18416.463    
   6665000   1.0400164      303.47051      230.0967      -18384.936    
   6666000   1.0403193      310.42246      172.94908     -18353.988    
   6667000   1.0337508      294.85359     -840.93926     -18466.835    
   6668000   1.0340677      301.10998     -831.32503     -18415.625    
   6669000   1.0425155      294.41698      675.01324     -18468.867    
   6670000   1.045532       278.84284      1044.157      -18557.346    
   6671000   1.0314618      302.98809     -1130.2491     -18409.79     
   6672000   1.0362044      290.7659      -1592.8136     -18487.482    
   6673000   1.0388739      310.75024     -970.00397     -18367.122    
   6674000   1.0390433      306.14639     -286.81326     -18383.662    
   6675000   1.0382141      297.80243     -204.73269     -18448.759    
   6676000   1.0403663      302.99484     -329.51422     -18407.569    
   6677000   1.033003       292.2436      -956.44758     -18480.738    
   6678000   1.0416664      305.45413      1341.0207     -18407.178    
   6679000   1.0425309      307.41049      1160.9011     -18398.154    
   6680000   1.0321009      280.78985     -1421.6586     -18558.623    
   6681000   1.0354818      296.8138      -1453.7963     -18456.455    
   6682000   1.0404332      299.75536      75.377761     -18418.693    
   6683000   1.0411345      319.4656       1550.422      -18299.285    
   6684000   1.0351119      282.57681      223.8382      -18513.749    
   6685000   1.0417317      294.40958     -251.47246     -18499.388    
   6686000   1.0391369      297.1677      -830.87982     -18459.898    
   6687000   1.0325392      318.74685     -1891.9313     -18309.583    
   6688000   1.0434707      299.89663      32.842577     -18445.97     
   6689000   1.0404823      306.92908      690.82461     -18414.342    
   6690000   1.0342656      293.21387     -654.28552     -18482.237    
   6691000   1.0339083      290.77456     -783.99454     -18484.543    
   6692000   1.0410304      298.75168     -429.54681     -18448.736    
   6693000   1.0372249      302.59046     -1291.4165     -18398.935    
   6694000   1.0311332      307.98482     -347.82657     -18338.411    
   6695000   1.044001       288.41704      1173.41       -18525.304    
   6696000   1.0448807      298.46373      1834.6608     -18428.029    
   6697000   1.0345368      300.79453      192.56255     -18425.489    
   6698000   1.0380284      290.33492     -301.54034     -18487.175    
   6699000   1.0483429      295.28242      1856.9229     -18472.605    
   6700000   1.0376642      290.06421      682.09241     -18506.745    
   6701000   1.031629       291.38821      35.722502     -18458.488    
   6702000   1.0443374      287.73478      686.51708     -18529.691    
   6703000   1.0436845      296.88383      197.10169     -18456.019    
   6704000   1.0276846      297.42244     -1048.0996     -18439.772    
   6705000   1.0470752      299.20833      1309.4286     -18489.411    
   6706000   1.0392061      295.52583      396.32582     -18420.095    
   6707000   1.0395011      304.72661      450.79134     -18381.328    
   6708000   1.0426105      308.92013      397.96451     -18382.401    
   6709000   1.0355415      293.07241     -249.03943     -18451.606    
   6710000   1.0364619      295.14335     -60.788707     -18454.656    
   6711000   1.0477262      296.14136      1431.6187     -18474.897    
   6712000   1.0355375      308.72016      1798.217      -18378.63     
   6713000   1.0401755      301.79735      781.51932     -18432.094    
   6714000   1.0417035      298.98218     -159.60296     -18461.965    
   6715000   1.0395547      286.95189      1346.17       -18520.861    
   6716000   1.0408767      292.46041      364.53771     -18503.716    
   6717000   1.0400468      293.65753      62.770262     -18461.318    
   6718000   1.0347782      281.32413     -592.85907     -18571.27     
   6719000   1.0359633      305.14995     -420.39827     -18413.61     
   6720000   1.039785       300.83673      53.685963     -18443.523    
   6721000   1.0391219      307.86507      1046.4035     -18371.974    
   6722000   1.0345642      293.51205     -398.23002     -18446.819    
   6723000   1.0418195      287.30342      1175.4052     -18516.183    
   6724000   1.0421573      296.09772      1291.0696     -18447.99     
   6725000   1.035762       303.50851      97.081876     -18424.18     
   6726000   1.0423292      296.2394      -803.42429     -18489.722    
   6727000   1.0323678      286.19267     -831.99684     -18509.328    
   6728000   1.0409067      300.88357      183.61049     -18417.129    
   6729000   1.0411064      293.135       -136.42174     -18472.438    
   6730000   1.0276224      296.94551     -1739.2109     -18407.491    
   6731000   1.0371202      295.38421     -969.59278     -18436.524    
   6732000   1.0455947      303.64066      869.46285     -18401.199    
   6733000   1.0290677      303.19172     -1560.6702     -18383.229    
   6734000   1.0345058      292.14546     -624.35145     -18453.264    
   6735000   1.0498555      300.32598      1104.6316     -18445.521    
   6736000   1.0297661      305.21876     -764.33188     -18388.774    
   6737000   1.0385316      303.1933       27.827385     -18415.192    
   6738000   1.0479521      320.26977      126.11199     -18294.503    
   6739000   1.0280055      298.31699     -127.73848     -18408.549    
   6740000   1.0383881      290.85857     -747.67315     -18475.468    
   6741000   1.0500523      310.96894      1944.2827     -18376.048    
   6742000   1.0286627      298.03186     -180.12096     -18429.576    
   6743000   1.0448495      300.66359      1429.6323     -18416.54     
   6744000   1.0401318      293.20677     -299.33632     -18481.078    
   6745000   1.0235857      300.64526     -2489.6471     -18397.637    
   6746000   1.048229       286.47859      861.09622     -18512.027    
   6747000   1.0418548      304.17775     -148.04363     -18393.918    
   6748000   1.0249472      296.28747     -2748.9955     -18421.589    
   6749000   1.0436538      290.10336      243.48833     -18499.68     
   6750000   1.0405929      302.13295     -468.09986     -18414.904    
   6751000   1.0299736      286.31115     -809.13368     -18478.564    
   6752000   1.0417575      307.14616     -248.18026     -18374.906    
   6753000   1.0426713      288.16569     -287.30769     -18482.469    
   6754000   1.0333415      272.58597     -1075.1074     -18591.083    
   6755000   1.0445125      298.50255      1136.9732     -18444.793    
   6756000   1.0407944      284.32257     -15.875942     -18534.002    
   6757000   1.0262263      300.45059     -613.49518     -18424.753    
   6758000   1.0458969      294.38461      1061.3033     -18467.666    
   6759000   1.0407333      313.88901      250.86097     -18378.501    
   6760000   1.0324475      296.70827     -1349.0443     -18445.357    
   6761000   1.0415147      306.4868       499.16253     -18392.104    
   6762000   1.0431972      298.03078      486.88621     -18460.665    
   6763000   1.0352923      311.43609     -155.91358     -18369.772    
   6764000   1.043721       308.1313       337.52731     -18407.58     
   6765000   1.034915       292.68157     -607.13639     -18465.869    
   6766000   1.0290258      307.79521     -1758.5794     -18351.646    
   6767000   1.0498733      283.32495      1183.7497     -18577.512    
   6768000   1.0368451      303.34965      250.93825     -18390.014    
   6769000   1.0329244      294.59505     -438.41288     -18440.545    
   6770000   1.0459393      302.81039      1706.128      -18442.655    
   6771000   1.0408387      307.1916       189.37327     -18384.643    
   6772000   1.0336112      308.53841     -2225.7491     -18350.18     
   6773000   1.041793       316.64082      738.59423     -18310.903    
   6774000   1.038309       301.13209      811.76539     -18406.082    
   6775000   1.0336665      298.60146     -1193.3101     -18430.182    
   6776000   1.0482322      301.64736      185.32913     -18456.337    
   6777000   1.033026       307.13419     -1298.2147     -18371.983    
   6778000   1.0362944      301.80009      1471.9817     -18383.543    
   6779000   1.0451187      289.22493     -17.014278     -18486.233    
   6780000   1.0401593      281.54145     -246.18338     -18533.831    
   6781000   1.0298416      306.4392      -310.92473     -18368.088    
   6782000   1.0480764      286.14872      1066.6504     -18526.869    
   6783000   1.0363386      295.93153     -826.71839     -18466.268    
   6784000   1.0316586      293.25397     -557.41457     -18480.631    
   6785000   1.0473299      300.19116      1958.445      -18440.456    
   6786000   1.0354269      296.04194     -533.03781     -18484.793    
   6787000   1.0338813      287.37379      505.80064     -18529.671    
   6788000   1.0519134      288.64555      1912.9461     -18529.391    
   6789000   1.0308458      286.28481     -521.93848     -18517.189    
   6790000   1.035643       300.7548      -328.12023     -18443.608    
   6791000   1.0488636      299.28906      733.11333     -18431.006    
   6792000   1.0330332      303.82359     -143.14073     -18399.554    
   6793000   1.0367188      298.08014      68.015507     -18444.727    
   6794000   1.0444275      295.12188      609.82207     -18450.107    
   6795000   1.0326056      283.87774     -889.19345     -18535.863    
   6796000   1.0363782      308.54744     -1511.308      -18405.818    
   6797000   1.0443358      281.82927     -889.12816     -18572.288    
   6798000   1.0332547      298.99438     -598.83456     -18420.742    
   6799000   1.0386894      297.43255     -76.094678     -18463.966    
   6800000   1.043301       296.81596      777.45112     -18480.349    
   6801000   1.0329103      301.09777     -869.08461     -18444.881    
   6802000   1.0361743      294.29543     -1014.577      -18457.253    
   6803000   1.0465765      295.61712      975.76712     -18484.049    
   6804000   1.0364015      290.39179     -736.71971     -18523.576    
   6805000   1.0361412      290.6966      -169.76607     -18473.529    
   6806000   1.0503388      307.73959      2035.0203     -18412.467    
   6807000   1.0344773      306.23463      229.16829     -18387.955    
   6808000   1.0362448      306.25643     -412.9776      -18389.964    
   6809000   1.0483478      288.783       -62.432767     -18535.508    
   6810000   1.027476       302.42148     -965.32401     -18414.206    
   6811000   1.0338626      286.17039     -637.96042     -18498.029    
   6812000   1.0524216      303.88587      1254.9073     -18424.546    
   6813000   1.0301937      302.2992      -731.17306     -18389.024    
   6814000   1.0308028      315.44502     -1533.5859     -18315.596    
   6815000   1.0485464      291.71762      396.51614     -18524.549    
   6816000   1.0339359      301.71921     -461.59473     -18376.646    
   6817000   1.0395683      307.0842       933.75555     -18378.86     
   6818000   1.044476       286.60183      496.7826      -18523.836    
   6819000   1.0347542      283.11418     -345.16047     -18555.187    
   6820000   1.0307105      293.25001     -1639.7662     -18448.714    
   6821000   1.0450806      279.27568     -527.82537     -18578.651    
   6822000   1.0428893      303.2553       611.59899     -18437.201    
   6823000   1.0286154      296.99073     -731.9568      -18410.742    
   6824000   1.0441992      300.68875      97.20961      -18461.408    
   6825000   1.0415301      295.73698     -1228.3927     -18458.906    
   6826000   1.0244493      305.42392     -1528.6424     -18359.494    
   6827000   1.0474373      298.17565      2073.722      -18474.718    
   6828000   1.0432439      286.95963      177.99836     -18558.18     
   6829000   1.0348862      298.26028     -356.52452     -18443.212    
   6830000   1.0412002      300.39601      641.07765     -18439.551    
   6831000   1.040519       309.1488       75.024509     -18395.766    
   6832000   1.0348689      280.40842     -1146.2125     -18591.776    
   6833000   1.0378953      296.60769      458.64524     -18444.04     
   6834000   1.0433408      301.39194      1565.495      -18433.802    
   6835000   1.048897       295.28558      1568.1646     -18491.548    
   6836000   1.0341225      280.78592     -336.66824     -18575.982    
   6837000   1.0388135      300.94734     -1304.9305     -18427.703    
   6838000   1.049097       291.68255     -399.4595      -18513.517    
   6839000   1.0288562      276.65735     -3203.8154     -18582.511    
   6840000   1.0381183      296.2863      -724.04362     -18443.648    
   6841000   1.0494895      311.27897      1008.6931     -18385.785    
   6842000   1.0328269      292.72082     -147.42312     -18459.598    
   6843000   1.0389355      301.6303       21.32509      -18381.838    
   6844000   1.0481273      295.12475      766.55        -18495.591    
   6845000   1.035847       274.51341     -715.52734     -18598.99     
   6846000   1.0405593      290.61107      312.32013     -18473.47     
   6847000   1.0456449      296.58314      890.5934      -18435.048    
   6848000   1.0380187      304.76251      458.99985     -18393.967    
   6849000   1.0352855      311.85377      710.09917     -18345.699    
   6850000   1.0433655      311.21863      800.33577     -18359.896    
   6851000   1.0459975      310.90003      84.000344     -18365.267    
   6852000   1.036172       296.75888     -667.88732     -18452.781    
   6853000   1.0420669      287.35796      21.739772     -18511.497    
   6854000   1.0381164      290.95971     -857.3587      -18506.189    
   6855000   1.040387       296.59604     -579.82259     -18463.347    
   6856000   1.0435809      305.69545     -489.30846     -18408.034    
   6857000   1.035688       302.43335      551.42113     -18388.989    
   6858000   1.0381337      317.30551     -422.82615     -18323.579    
   6859000   1.0435734      289.99245     -1143.2001     -18514.444    
   6860000   1.0360226      311.96976     -968.73781     -18322.432    
   6861000   1.0377817      299.81255      261.31519     -18388.427    
   6862000   1.0444355      294.44556      1676.1341     -18476.256    
   6863000   1.0373535      298.33902      525.36032     -18449.219    
   6864000   1.0334487      284.57494     -323.54518     -18506.924    
   6865000   1.0432658      296.10112      289.40317     -18441.614    
   6866000   1.0408116      292.53463      749.92137     -18491.981    
   6867000   1.036783       290.02493     -148.95477     -18501.883    
   6868000   1.0407107      305.42259     -255.43964     -18397.452    
   6869000   1.0364539      302.89957     -827.84934     -18426.665    
   6870000   1.0359559      292.98519     -925.19109     -18473.655    
   6871000   1.042708       295.16115      1260.5825     -18478.013    
   6872000   1.033417       296.88082     -80.073028     -18450.399    
   6873000   1.0468417      288.31415      1806.8695     -18497.677    
   6874000   1.0435557      305.2511       550.12598     -18404.913    
   6875000   1.0232933      297.33222     -2035.631      -18408.157    
   6876000   1.0442697      302.3733      -252.12347     -18422.602    
   6877000   1.0454904      294.5089       316.99851     -18452.36     
   6878000   1.0243997      312.31929     -1728.1147     -18333.517    
   6879000   1.0463417      300.3737       555.87995     -18429.929    
   6880000   1.046375       305.68207      81.973963     -18395.328    
   6881000   1.0270165      297.91076     -249.182       -18442.929    
   6882000   1.0412448      300.08979     -627.94935     -18422.229    
   6883000   1.0448978      276.0959      -1696.8981     -18592.861    
   6884000   1.0319195      289.20121     -1303.0373     -18513.747    
   6885000   1.0422684      289.9794      -306.44678     -18490.527    
   6886000   1.039816       313.14225     -40.286645     -18346.606    
   6887000   1.0345249      298.34332     -720.19125     -18406.212    
   6888000   1.0433289      294.7439       143.72564     -18448.956    
   6889000   1.043544       303.77573      754.16077     -18439.176    
   6890000   1.0367391      315.60013     -670.39443     -18328.038    
   6891000   1.0466196      296.20288      1568.8261     -18472.045    
   6892000   1.0397375      301.54099      1764.2182     -18448.996    
   6893000   1.0341416      297.84169     -111.5746      -18442.707    
   6894000   1.0476937      293.75881      724.82429     -18481.211    
   6895000   1.032595       304.15031     -130.24988     -18406.953    
   6896000   1.0351455      299.22364     -585.56603     -18419.61     
   6897000   1.0445395      301.84122     -537.05998     -18421.154    
   6898000   1.0349657      327.51355      493.50106     -18268.651    
   6899000   1.0332456      278.60073     -469.45431     -18565.699    
   6900000   1.04138        297.63822     -29.996167     -18468.163    
   6901000   1.0330981      295.28907     -1067.7736     -18437.229    
   6902000   1.0332998      295.96324     -989.79999     -18430.907    
   6903000   1.0387471      307.41582      657.31423     -18386.118    
   6904000   1.0371737      302.89122      732.52244     -18380.458    
   6905000   1.04266        288.15684     -276.82039     -18506.069    
   6906000   1.0389241      302.95606     -813.77757     -18396.782    
   6907000   1.0291232      309.98809     -1213.6494     -18336.13     
   6908000   1.0328998      296.708       -1071.5082     -18447.926    
   6909000   1.0443531      307.61084     -68.239493     -18373.815    
   6910000   1.0354065      288.24348     -239.36826     -18480.158    
   6911000   1.033672       294.29219     -570.8462      -18451.413    
   6912000   1.0403263      296.78554     -361.26348     -18435.548    
   6913000   1.0406268      293.96409      487.55165     -18470.481    
   6914000   1.035053       298.3546      -1317.9967     -18427.933    
   6915000   1.0392311      312.43283      1053.9575     -18348.639    
   6916000   1.0389987      294.16743      118.41526     -18439.368    
   6917000   1.0365444      296.74328     -134.90511     -18413.875    
   6918000   1.0381908      300.51087     -520.40208     -18428.35     
   6919000   1.0424593      290.24587     -97.414979     -18492.973    
   6920000   1.0319158      299.58561      1093.177      -18445.81     
   6921000   1.033912       293.41095     -1207.144      -18481.577    
   6922000   1.0495137      292.57371      834.57059     -18502.184    
   6923000   1.0356182      304.69697      281.49043     -18405.962    
   6924000   1.0356457      295.84192     -392.81125     -18468.693    
   6925000   1.0503617      297.55493      1172.5204     -18442.505    
   6926000   1.0284133      299.37274     -460.19691     -18372.658    
   6927000   1.0406748      302.24229      792.46483     -18398.578    
   6928000   1.0475174      303.99114      883.23534     -18375.03     
   6929000   1.0287405      309.02038     -199.22076     -18331.847    
   6930000   1.0414003      300.75028      679.38581     -18412.395    
   6931000   1.0465576      284.95266      1435.7802     -18532.851    
   6932000   1.0277867      294.46336     -1217.8235     -18433.253    
   6933000   1.0368214      294.81813     -1031.2591     -18435.544    
   6934000   1.0469184      318.67058      1232.2023     -18285.898    
   6935000   1.0337642      299.98929     -19.63879      -18411.642    
   6936000   1.0336356      312.71181      83.511924     -18298.613    
   6937000   1.0450151      294.22942      971.18669     -18483.987    
   6938000   1.0408384      301.6547      -190.74331     -18396.611    
   6939000   1.0341879      298.84867     -805.44621     -18410.772    
   6940000   1.0368288      300.70654     -423.52996     -18417.23     
   6941000   1.040003       285.71848      522.26257     -18513.068    
   6942000   1.0423578      298.08029      469.27532     -18451.057    
   6943000   1.0368787      306.11931     -963.57972     -18393.76     
   6944000   1.0435926      291.43355      1336.2617     -18503.476    
   6945000   1.0360999      298.67821      702.25722     -18403.736    
   6946000   1.0406016      283.9945       841.73964     -18531.611    
   6947000   1.0453073      313.55416      1703.2239     -18337.143    
   6948000   1.0314567      308.22833     -1197.3572     -18340.303    
   6949000   1.0392334      318.30569      285.06207     -18259.813    
   6950000   1.0463129      300.39664      1857.0703     -18442.576    
   6951000   1.0361939      292.22975      1323.5103     -18471.944    
   6952000   1.0395399      304.7572       979.36056     -18379.545    
   6953000   1.0365599      299.29024     -253.22261     -18409.733    
   6954000   1.0304016      295.9509      -1691.4941     -18425.959    
   6955000   1.0389803      291.74398     -620.32349     -18443.291    
   6956000   1.0375242      303.97635     -839.45836     -18381.786    
   6957000   1.0365105      293.59124     -52.197369     -18447.852    
   6958000   1.0390164      300.10611      994.70951     -18406.904    
   6959000   1.0333463      301.47646      224.92169     -18409.931    
   6960000   1.0367364      313.60973      1081.6051     -18338.116    
   6961000   1.0426354      289.44625      234.67322     -18497.473    
   6962000   1.0339833      287.59599      404.75606     -18483.637    
   6963000   1.0389749      283.5517       87.941602     -18516.317    
   6964000   1.0377451      291.97907      166.06296     -18474.325    
   6965000   1.0372484      286.95714     -870.87564     -18496.815    
